New structure                           
   1.00000000000000     
    11.1273015836202998   -0.0000000000001868    0.0000000000000000
    -5.5636507918605185    9.6365258469546689    0.0000000000000000
     0.0000000000000000   -0.0000000000000001   46.7065284040558595
 195   9  12
Direct
  0.0000000000000000  0.1648084750393863  0.9994437588685230
  0.1648081480393842  0.0000000000000000  0.9994437588685230
  0.0000000000000000  0.6686850597324110  0.9983107487435774
  0.1649426637218951  0.5022642775700845  0.9989796101600419
  0.3313152682675877  0.3313149112675902  0.9983107487435774
  0.5022642775700845  0.1649429907218973  0.9989796101600419
  0.6686847617324148  0.0000000000000000  0.9983107487435774
  0.3373212718481895  0.8350573212781001  0.9989796101600419
  0.4977357224299155  0.6626786991518117  0.9989796101600419
  0.6626784011518154  0.4977357224299155  0.9989796101600419
  0.8350573212781001  0.3373212718481895  0.9989796101600419
  0.8351918369606111  0.8351918369606111  0.9994437588685230
  0.0000000000000000  0.5026022173818632  0.0555641162311318
  0.1728463649097520  0.3414905320328927  0.0529918052060623
  0.3414908890328903  0.1728463649097520  0.0529918052060623
  0.5026022173818632  0.0000000000000000  0.0555641162311318
  0.1686445251231277  0.8271533220902469  0.0529918052060623
  0.3333333429999996  0.6666669849999991  0.0549077903052577
  0.4973977826181368  0.4973977826181368  0.0555641162311318
  0.6666666870000029  0.3333329860000021  0.0549077903052577
  0.8271536200902432  0.1686448521231299  0.0529918052060623
  0.6585091409671122  0.8313551618768713  0.0529918052060623
  0.8313554598768675  0.6585094389671085  0.0529918052060623
  0.1656882309465715  0.5120479623906746  0.1104665160596099
  0.5120479623906746  0.1656885579465737  0.1104665160596099
  0.3463593894441033  0.8343117540534237  0.1104665160596099
  0.4879520376093254  0.6536405815558979  0.1104665160596099
  0.6536402835559016  0.4879520376093254  0.1104665160596099
  0.8343117540534237  0.3463593894441033  0.1104665160596099
  0.1659912520601665  0.6535912133351331  0.1675177317024179
  0.3464091146648656  0.5124003517250344  0.1675177317024179
  0.5124003517250344  0.3464087576648680  0.1675177317024179
  0.6535909153351369  0.1659915790601687  0.1675177317024179
  0.4875996482749656  0.8340084349398325  0.1675177317024179
  0.8340087329398287  0.4875996482749656  0.1675177317024179
  0.0000000000000000  0.4974062093383296  0.2224564764822929
  0.1689741448070521  0.3392422507798827  0.2254247392789566
  0.3392426077798802  0.1689741448070521  0.2254247392789566
  0.4974062093383296  0.0000000000000000  0.2224564764822929
  0.1702684639728247  0.8310255421929469  0.2254247392789566
  0.3333333429999996  0.6666669849999991  0.2229644007642335
  0.5025937906616704  0.5025937906616704  0.2224564764822929
  0.6666666870000029  0.3333329860000021  0.2229644007642335
  0.8310258401929431  0.1702687909728269  0.2254247392789566
  0.6607574222201222  0.8297312230271743  0.2254247392789566
  0.8297315210271705  0.6607577202201185  0.2254247392789566
  0.0000000000000000  0.3286012955203574  0.2790989486794970
  0.1613053381780958  0.1613056651780980  0.2792597913674300
  0.3286016525203550  0.0000000000000000  0.2790989486794970
  0.0000000000000000  0.8386943488219032  0.2792597913674300
  0.1641731136877667  0.6602793764144650  0.2789045307866473
  0.3397209515855337  0.5038940502733027  0.2789045307866473
  0.5038940502733027  0.3397205945855362  0.2789045307866473
  0.6602790784144688  0.1641734406877688  0.2789045307866473
  0.8386946468218994  0.0000000000000000  0.2792597913674300
  0.4961059497266973  0.8358265733122323  0.2789045307866473
  0.6713983774796475  0.6713986754796437  0.2790989486794970
  0.8358268713122285  0.4961059497266973  0.2789045307866473
  0.0000000000000000  0.4919893770085793  0.3341335767142581
  0.1747247245034558  0.3366336059447477  0.3331386880233964
  0.3366339629447452  0.1747247245034558  0.3331386880233964
  0.4919893770085793  0.0000000000000000  0.3341335767142581
  0.1619092394412860  0.8252749624965432  0.3331386880233964
  0.3333333429999996  0.6666669849999991  0.3351643893191820
  0.5080106229914207  0.5080106229914207  0.3341335767142581
  0.6666666870000029  0.3333329860000021  0.3351643893191820
  0.8252752604965394  0.1619095664412882  0.3331386880233964
  0.6633660670552572  0.8380904475587130  0.3331386880233964
  0.8380907455587092  0.6633663650552535  0.3331386880233964
  0.1626743980396768  0.6550489846594232  0.3901798909595513
  0.3449513433405755  0.5076257263802546  0.3901798909595513
  0.5076257263802546  0.3449509863405780  0.3901798909595513
  0.6550486866594269  0.1626747250396789  0.3901798909595513
  0.4923742736197454  0.8373252889603222  0.3901798909595513
  0.8373255869603184  0.4923742736197454  0.3901798909595513
  0.0000000000000000  0.0000000000000000  0.4224591170720799
  0.0000000000000000  0.4908025361939181  0.4455549767964584
  0.1695137187760096  0.3301943987017495  0.4457217839155874
  0.3301947557017471  0.1695137187760096  0.4457217839155874
  0.4908025361939181  0.0000000000000000  0.4455549767964584
  0.1606810379257340  0.8304859682239893  0.4457217839155874
  0.3333333429999996  0.6666669849999991  0.4446181633068207
  0.5091974638060819  0.5091974638060819  0.4455549767964584
  0.6666666870000029  0.3333329860000021  0.4446181633068207
  0.8304862662239856  0.1606813649257361  0.4457217839155874
  0.6698052742982554  0.8393186490742650  0.4457217839155874
  0.8393189470742612  0.6698055722982517  0.4457217839155874
  0.0000000000000000  0.3318414490776220  0.5013663073360419
  0.1635713453926257  0.1635716723926279  0.5003025248128168
  0.3318418060776196  0.0000000000000000  0.5013663073360419
  0.0000000000000000  0.8364283416073732  0.5003025248128168
  0.1661480899933778  0.6664282725765673  0.5002860012792070
  0.3335720554234314  0.4997201304168115  0.5002860012792070
  0.4997201304168115  0.3335716984234338  0.5002860012792070
  0.6664279745765711  0.1661484169933800  0.5002860012792070
  0.8364286396073695  0.0000000000000000  0.5003025248128168
  0.5002798695831885  0.8338515970066211  0.5002860012792070
  0.6681582239223829  0.6681585219223791  0.5013663073360419
  0.8338518950066174  0.5002798695831885  0.5002860012792070
  0.0000000000000000  0.0000000000000000  0.5560293833431373
  0.0000000000000000  0.5001883254857162  0.5559114264658334
  0.1671620473446396  0.3330403668276674  0.5560701841024240
  0.3330407238276649  0.1671620473446396  0.5560701841024240
  0.5001883254857162  0.0000000000000000  0.5559114264658334
  0.1658786774830219  0.8328376396553594  0.5560701841024240
  0.3333333429999996  0.6666669849999991  0.5558249231754573
  0.4998116745142838  0.4998116745142838  0.5559114264658334
  0.6666666870000029  0.3333329860000021  0.5558249231754573
  0.8328379376553556  0.1658790044830241  0.5560701841024240
  0.6669593061723376  0.8341210095169771  0.5560701841024240
  0.8341213075169733  0.6669596041723338  0.5560701841024240
  0.0000000000000000  0.3330919177499752  0.6116068074596583
  0.1666705978148215  0.1666709248148237  0.6114224123758660
  0.3330922747499727  0.0000000000000000  0.6116068074596583
  0.0000000000000000  0.8333290891851775  0.6114224123758660
  0.1667267055752859  0.6665332567098261  0.6113332145032686
  0.3334670712901726  0.5001937618654608  0.6113332145032686
  0.5001937618654608  0.3334667142901750  0.6113332145032686
  0.6665329587098299  0.1667270325752881  0.6113332145032686
  0.8333293871851737  0.0000000000000000  0.6114224123758660
  0.4998062381345392  0.8332729814247131  0.6113332145032686
  0.6669077552500298  0.6669080532500260  0.6116068074596583
  0.8332732794247093  0.4998062381345392  0.6113332145032686
  0.0000000000000000  0.0000000000000000  0.6668240596300663
  0.0000000000000000  0.4997874863484526  0.6667159799719968
  0.1666064837279961  0.3332887200003611  0.6667768188422798
  0.3332890770003587  0.1666064837279961  0.6667768188422798
  0.4997874863484526  0.0000000000000000  0.6667159799719968
  0.1666825942723591  0.8333932032720028  0.6667768188422798
  0.3333333429999996  0.6666669849999991  0.6666831700160074
  0.5002125136515474  0.5002125136515474  0.6667159799719968
  0.6666666870000029  0.3333329860000021  0.6666831700160074
  0.8333935012719991  0.1666829212723613  0.6667768188422798
  0.6667109529996438  0.8333170927276399  0.6667768188422798
  0.8333173907276361  0.6667112509996400  0.6667768188422798
  0.0000000000000000  0.3333946536529595  0.7221346119429128
  0.1668461422483674  0.1668464692483695  0.7220671290996350
  0.3333950106529571  0.0000000000000000  0.7221346119429128
  0.0000000000000000  0.8331535447516316  0.7220671290996350
  0.1667335566733499  0.6664804831191091  0.7220680498237471
  0.3335198448808896  0.5002533865542489  0.7220680498237471
  0.5002533865542489  0.3335194878808920  0.7220680498237471
  0.6664801851191129  0.1667338836733521  0.7220680498237471
  0.8331538427516278  0.0000000000000000  0.7220671290996350
  0.4997466134457511  0.8332661303266491  0.7220680498237471
  0.6666050193470454  0.6666053173470416  0.7221346119429128
  0.8332664283266453  0.4997466134457511  0.7220680498237471
  0.0000000000000000  0.0000000000000000  0.7773245708050709
  0.0000000000000000  0.4998741980849317  0.7773888709442645
  0.1667351371633075  0.3336622332051959  0.7773561142578345
  0.3336625902051935  0.1667351371633075  0.7773561142578345
  0.4998741980849317  0.0000000000000000  0.7773888709442645
  0.1669274540418897  0.8332645498366915  0.7773561142578345
  0.3333333429999996  0.6666669849999991  0.7774238065460040
  0.5001258019150683  0.5001258019150683  0.7773888709442645
  0.6666666870000029  0.3333329860000021  0.7774238065460040
  0.8332648478366877  0.1669277810418919  0.7773561142578345
  0.6663374397948090  0.8330722329581164  0.7773561142578345
  0.8330725309581055  0.6663377377948052  0.7773561142578345
  0.0000000000000000  0.3335101448530864  0.8326675707376410
  0.1668073220351829  0.1668076490351851  0.8325138082194172
  0.3335105018530840  0.0000000000000000  0.8326675707376410
  0.0000000000000000  0.8331923649648161  0.8325138082194172
  0.1666750434714999  0.6665706574121089  0.8327213626474972
  0.3334296705878899  0.5001046990593920  0.8327213626474972
  0.5001046990593920  0.3334293135878923  0.8327213626474972
  0.6665703594121126  0.1666753704715020  0.8327213626474972
  0.8331926629648123  0.0000000000000000  0.8325138082194172
  0.4998953009406080  0.8333246435284991  0.8327213626474972
  0.6664895281469185  0.6664898261469148  0.8326675707376410
  0.8333249415284953  0.4998953009406080  0.8327213626474972
  0.0000000000000000  0.0000000000000000  0.8874634212012822
  0.0000000000000000  0.5001438604765411  0.8879801688095839
  0.1666546098557902  0.3335731490846783  0.8877973229811289
  0.3335735060846758  0.1666546098557902  0.8877973229811289
  0.5001438604765411  0.0000000000000000  0.8879801688095839
  0.1669188972288822  0.8333450771442088  0.8877973229811289
  0.3333333429999996  0.6666669849999991  0.8879065527813665
  0.4998561395234589  0.4998561395234589  0.8879801688095839
  0.6666666870000029  0.3333329860000021  0.8879065527813665
  0.8333453751442050  0.1669192242288844  0.8877973229811289
  0.6664265239153266  0.8330807897711168  0.8877973229811289
  0.8330810877711130  0.6664268219153229  0.8877973229811289
  0.0000000000000000  0.3334409922199342  0.9435591520586399
  0.1659821146721328  0.1659824416721349  0.9429426891948935
  0.3334413492199317  0.0000000000000000  0.9435591520586399
  0.0000000000000000  0.8340175723278662  0.9429426891948935
  0.1671904950272349  0.6678014631679972  0.9432570246875116
  0.3321988648320016  0.4993893448592388  0.9432570246875116
  0.4993893448592388  0.3321985078320040  0.9432570246875116
  0.6678011651680009  0.1671908220272371  0.9432570246875116
  0.8340178703278625  0.0000000000000000  0.9429426891948935
  0.5006106551407612  0.8328091919727640  0.9432570246875116
  0.6665586807800707  0.6665589787800670  0.9435591520586399
  0.8328094899727603  0.5006106551407612  0.9432570246875116
  0.0000000000000000  0.2304337097310878  0.0993331870384750
  0.2304333827310856  0.0000000000000000  0.0993331870384750
  0.7695666022689096  0.7695666022689096  0.0993331870384750
  0.2323169766651532  0.2323173036651554  0.1785179586198709
  0.0000000000000000  0.7676827103348458  0.1785179586198709
  0.7676830083348420  0.0000000000000000  0.1785179586198709
  0.2179642005926752  0.2179645275926774  0.3884102631264739
  0.0000000000000000  0.7820354864073238  0.3884102631264739
  0.7820357844073200  0.0000000000000000  0.3884102631264739
  0.0000000000000000  0.0000000000000000  0.0648363385186315
  0.0000000000000000  0.7138263300901571  0.1151370519960864
  0.2861739979098417  0.2861736409098441  0.1151370519960864
  0.7138260320901608  0.0000000000000000  0.1151370519960864
  0.0000000000000000  0.2874397652004106  0.1631851783478737
  0.2874401222004082  0.0000000000000000  0.1631851783478737
  0.7125599077995943  0.7125602057995906  0.1631851783478737
  0.0000000000000000  0.0000000000000000  0.2113132722575770
  0.0000000000000000  0.0000000000000000  0.3479957936144373
  0.0000000000000000  0.3054120689467510  0.3892877808341879
  0.3054124259467486  0.0000000000000000  0.3892877808341879
  0.6945876040532539  0.6945879020532502  0.3892877808341879
 
  0.00000000E+00  0.00000000E+00  0.00000000E+00
  0.00000000E+00  0.00000000E+00  0.00000000E+00
  0.00000000E+00  0.00000000E+00  0.00000000E+00
  0.00000000E+00  0.00000000E+00  0.00000000E+00
  0.00000000E+00  0.00000000E+00  0.00000000E+00
  0.00000000E+00  0.00000000E+00  0.00000000E+00
  0.00000000E+00  0.00000000E+00  0.00000000E+00
  0.00000000E+00  0.00000000E+00  0.00000000E+00
  0.00000000E+00  0.00000000E+00  0.00000000E+00
  0.00000000E+00  0.00000000E+00  0.00000000E+00
  0.00000000E+00  0.00000000E+00  0.00000000E+00
  0.00000000E+00  0.00000000E+00  0.00000000E+00
  0.00000000E+00  0.00000000E+00  0.00000000E+00
  0.00000000E+00  0.00000000E+00  0.00000000E+00
  0.00000000E+00  0.00000000E+00  0.00000000E+00
  0.00000000E+00  0.00000000E+00  0.00000000E+00
  0.00000000E+00  0.00000000E+00  0.00000000E+00
  0.00000000E+00  0.00000000E+00  0.00000000E+00
  0.00000000E+00  0.00000000E+00  0.00000000E+00
  0.00000000E+00  0.00000000E+00  0.00000000E+00
  0.00000000E+00  0.00000000E+00  0.00000000E+00
  0.00000000E+00  0.00000000E+00  0.00000000E+00
  0.00000000E+00  0.00000000E+00  0.00000000E+00
  0.00000000E+00  0.00000000E+00  0.00000000E+00
  0.00000000E+00  0.00000000E+00  0.00000000E+00
  0.00000000E+00  0.00000000E+00  0.00000000E+00
  0.00000000E+00  0.00000000E+00  0.00000000E+00
  0.00000000E+00  0.00000000E+00  0.00000000E+00
  0.00000000E+00  0.00000000E+00  0.00000000E+00
  0.00000000E+00  0.00000000E+00  0.00000000E+00
  0.00000000E+00  0.00000000E+00  0.00000000E+00
  0.00000000E+00  0.00000000E+00  0.00000000E+00
  0.00000000E+00  0.00000000E+00  0.00000000E+00
  0.00000000E+00  0.00000000E+00  0.00000000E+00
  0.00000000E+00  0.00000000E+00  0.00000000E+00
  0.00000000E+00  0.00000000E+00  0.00000000E+00
  0.00000000E+00  0.00000000E+00  0.00000000E+00
  0.00000000E+00  0.00000000E+00  0.00000000E+00
  0.00000000E+00  0.00000000E+00  0.00000000E+00
  0.00000000E+00  0.00000000E+00  0.00000000E+00
  0.00000000E+00  0.00000000E+00  0.00000000E+00
  0.00000000E+00  0.00000000E+00  0.00000000E+00
  0.00000000E+00  0.00000000E+00  0.00000000E+00
  0.00000000E+00  0.00000000E+00  0.00000000E+00
  0.00000000E+00  0.00000000E+00  0.00000000E+00
  0.00000000E+00  0.00000000E+00  0.00000000E+00
  0.00000000E+00  0.00000000E+00  0.00000000E+00
  0.00000000E+00  0.00000000E+00  0.00000000E+00
  0.00000000E+00  0.00000000E+00  0.00000000E+00
  0.00000000E+00  0.00000000E+00  0.00000000E+00
  0.00000000E+00  0.00000000E+00  0.00000000E+00
  0.00000000E+00  0.00000000E+00  0.00000000E+00
  0.00000000E+00  0.00000000E+00  0.00000000E+00
  0.00000000E+00  0.00000000E+00  0.00000000E+00
  0.00000000E+00  0.00000000E+00  0.00000000E+00
  0.00000000E+00  0.00000000E+00  0.00000000E+00
  0.00000000E+00  0.00000000E+00  0.00000000E+00
  0.00000000E+00  0.00000000E+00  0.00000000E+00
  0.00000000E+00  0.00000000E+00  0.00000000E+00
  0.00000000E+00  0.00000000E+00  0.00000000E+00
  0.00000000E+00  0.00000000E+00  0.00000000E+00
  0.00000000E+00  0.00000000E+00  0.00000000E+00
  0.00000000E+00  0.00000000E+00  0.00000000E+00
  0.00000000E+00  0.00000000E+00  0.00000000E+00
  0.00000000E+00  0.00000000E+00  0.00000000E+00
  0.00000000E+00  0.00000000E+00  0.00000000E+00
  0.00000000E+00  0.00000000E+00  0.00000000E+00
  0.00000000E+00  0.00000000E+00  0.00000000E+00
  0.00000000E+00  0.00000000E+00  0.00000000E+00
  0.00000000E+00  0.00000000E+00  0.00000000E+00
  0.00000000E+00  0.00000000E+00  0.00000000E+00
  0.00000000E+00  0.00000000E+00  0.00000000E+00
  0.00000000E+00  0.00000000E+00  0.00000000E+00
  0.00000000E+00  0.00000000E+00  0.00000000E+00
  0.00000000E+00  0.00000000E+00  0.00000000E+00
  0.00000000E+00  0.00000000E+00  0.00000000E+00
  0.00000000E+00  0.00000000E+00  0.00000000E+00
  0.00000000E+00  0.00000000E+00  0.00000000E+00
  0.00000000E+00  0.00000000E+00  0.00000000E+00
  0.00000000E+00  0.00000000E+00  0.00000000E+00
  0.00000000E+00  0.00000000E+00  0.00000000E+00
  0.00000000E+00  0.00000000E+00  0.00000000E+00
  0.00000000E+00  0.00000000E+00  0.00000000E+00
  0.00000000E+00  0.00000000E+00  0.00000000E+00
  0.00000000E+00  0.00000000E+00  0.00000000E+00
  0.00000000E+00  0.00000000E+00  0.00000000E+00
  0.00000000E+00  0.00000000E+00  0.00000000E+00
  0.00000000E+00  0.00000000E+00  0.00000000E+00
  0.00000000E+00  0.00000000E+00  0.00000000E+00
  0.00000000E+00  0.00000000E+00  0.00000000E+00
  0.00000000E+00  0.00000000E+00  0.00000000E+00
  0.00000000E+00  0.00000000E+00  0.00000000E+00
  0.00000000E+00  0.00000000E+00  0.00000000E+00
  0.00000000E+00  0.00000000E+00  0.00000000E+00
  0.00000000E+00  0.00000000E+00  0.00000000E+00
  0.00000000E+00  0.00000000E+00  0.00000000E+00
  0.00000000E+00  0.00000000E+00  0.00000000E+00
  0.00000000E+00  0.00000000E+00  0.00000000E+00
  0.00000000E+00  0.00000000E+00  0.00000000E+00
  0.00000000E+00  0.00000000E+00  0.00000000E+00
  0.00000000E+00  0.00000000E+00  0.00000000E+00
  0.00000000E+00  0.00000000E+00  0.00000000E+00
  0.00000000E+00  0.00000000E+00  0.00000000E+00
  0.00000000E+00  0.00000000E+00  0.00000000E+00
  0.00000000E+00  0.00000000E+00  0.00000000E+00
  0.00000000E+00  0.00000000E+00  0.00000000E+00
  0.00000000E+00  0.00000000E+00  0.00000000E+00
  0.00000000E+00  0.00000000E+00  0.00000000E+00
  0.00000000E+00  0.00000000E+00  0.00000000E+00
  0.00000000E+00  0.00000000E+00  0.00000000E+00
  0.00000000E+00  0.00000000E+00  0.00000000E+00
  0.00000000E+00  0.00000000E+00  0.00000000E+00
  0.00000000E+00  0.00000000E+00  0.00000000E+00
  0.00000000E+00  0.00000000E+00  0.00000000E+00
  0.00000000E+00  0.00000000E+00  0.00000000E+00
  0.00000000E+00  0.00000000E+00  0.00000000E+00
  0.00000000E+00  0.00000000E+00  0.00000000E+00
  0.00000000E+00  0.00000000E+00  0.00000000E+00
  0.00000000E+00  0.00000000E+00  0.00000000E+00
  0.00000000E+00  0.00000000E+00  0.00000000E+00
  0.00000000E+00  0.00000000E+00  0.00000000E+00
  0.00000000E+00  0.00000000E+00  0.00000000E+00
  0.00000000E+00  0.00000000E+00  0.00000000E+00
  0.00000000E+00  0.00000000E+00  0.00000000E+00
  0.00000000E+00  0.00000000E+00  0.00000000E+00
  0.00000000E+00  0.00000000E+00  0.00000000E+00
  0.00000000E+00  0.00000000E+00  0.00000000E+00
  0.00000000E+00  0.00000000E+00  0.00000000E+00
  0.00000000E+00  0.00000000E+00  0.00000000E+00
  0.00000000E+00  0.00000000E+00  0.00000000E+00
  0.00000000E+00  0.00000000E+00  0.00000000E+00
  0.00000000E+00  0.00000000E+00  0.00000000E+00
  0.00000000E+00  0.00000000E+00  0.00000000E+00
  0.00000000E+00  0.00000000E+00  0.00000000E+00
  0.00000000E+00  0.00000000E+00  0.00000000E+00
  0.00000000E+00  0.00000000E+00  0.00000000E+00
  0.00000000E+00  0.00000000E+00  0.00000000E+00
  0.00000000E+00  0.00000000E+00  0.00000000E+00
  0.00000000E+00  0.00000000E+00  0.00000000E+00
  0.00000000E+00  0.00000000E+00  0.00000000E+00
  0.00000000E+00  0.00000000E+00  0.00000000E+00
  0.00000000E+00  0.00000000E+00  0.00000000E+00
  0.00000000E+00  0.00000000E+00  0.00000000E+00
  0.00000000E+00  0.00000000E+00  0.00000000E+00
  0.00000000E+00  0.00000000E+00  0.00000000E+00
  0.00000000E+00  0.00000000E+00  0.00000000E+00
  0.00000000E+00  0.00000000E+00  0.00000000E+00
  0.00000000E+00  0.00000000E+00  0.00000000E+00
  0.00000000E+00  0.00000000E+00  0.00000000E+00
  0.00000000E+00  0.00000000E+00  0.00000000E+00
  0.00000000E+00  0.00000000E+00  0.00000000E+00
  0.00000000E+00  0.00000000E+00  0.00000000E+00
  0.00000000E+00  0.00000000E+00  0.00000000E+00
  0.00000000E+00  0.00000000E+00  0.00000000E+00
  0.00000000E+00  0.00000000E+00  0.00000000E+00
  0.00000000E+00  0.00000000E+00  0.00000000E+00
  0.00000000E+00  0.00000000E+00  0.00000000E+00
  0.00000000E+00  0.00000000E+00  0.00000000E+00
  0.00000000E+00  0.00000000E+00  0.00000000E+00
  0.00000000E+00  0.00000000E+00  0.00000000E+00
  0.00000000E+00  0.00000000E+00  0.00000000E+00
  0.00000000E+00  0.00000000E+00  0.00000000E+00
  0.00000000E+00  0.00000000E+00  0.00000000E+00
  0.00000000E+00  0.00000000E+00  0.00000000E+00
  0.00000000E+00  0.00000000E+00  0.00000000E+00
  0.00000000E+00  0.00000000E+00  0.00000000E+00
  0.00000000E+00  0.00000000E+00  0.00000000E+00
  0.00000000E+00  0.00000000E+00  0.00000000E+00
  0.00000000E+00  0.00000000E+00  0.00000000E+00
  0.00000000E+00  0.00000000E+00  0.00000000E+00
  0.00000000E+00  0.00000000E+00  0.00000000E+00
  0.00000000E+00  0.00000000E+00  0.00000000E+00
  0.00000000E+00  0.00000000E+00  0.00000000E+00
  0.00000000E+00  0.00000000E+00  0.00000000E+00
  0.00000000E+00  0.00000000E+00  0.00000000E+00
  0.00000000E+00  0.00000000E+00  0.00000000E+00
  0.00000000E+00  0.00000000E+00  0.00000000E+00
  0.00000000E+00  0.00000000E+00  0.00000000E+00
  0.00000000E+00  0.00000000E+00  0.00000000E+00
  0.00000000E+00  0.00000000E+00  0.00000000E+00
  0.00000000E+00  0.00000000E+00  0.00000000E+00
  0.00000000E+00  0.00000000E+00  0.00000000E+00
  0.00000000E+00  0.00000000E+00  0.00000000E+00
  0.00000000E+00  0.00000000E+00  0.00000000E+00
  0.00000000E+00  0.00000000E+00  0.00000000E+00
  0.00000000E+00  0.00000000E+00  0.00000000E+00
  0.00000000E+00  0.00000000E+00  0.00000000E+00
  0.00000000E+00  0.00000000E+00  0.00000000E+00
  0.00000000E+00  0.00000000E+00  0.00000000E+00
  0.00000000E+00  0.00000000E+00  0.00000000E+00
  0.00000000E+00  0.00000000E+00  0.00000000E+00
  0.00000000E+00  0.00000000E+00  0.00000000E+00
  0.00000000E+00  0.00000000E+00  0.00000000E+00
  0.00000000E+00  0.00000000E+00  0.00000000E+00
  0.00000000E+00  0.00000000E+00  0.00000000E+00
  0.00000000E+00  0.00000000E+00  0.00000000E+00
  0.00000000E+00  0.00000000E+00  0.00000000E+00
  0.00000000E+00  0.00000000E+00  0.00000000E+00
  0.00000000E+00  0.00000000E+00  0.00000000E+00
  0.00000000E+00  0.00000000E+00  0.00000000E+00
  0.00000000E+00  0.00000000E+00  0.00000000E+00
  0.00000000E+00  0.00000000E+00  0.00000000E+00
  0.00000000E+00  0.00000000E+00  0.00000000E+00
  0.00000000E+00  0.00000000E+00  0.00000000E+00
  0.00000000E+00  0.00000000E+00  0.00000000E+00
  0.00000000E+00  0.00000000E+00  0.00000000E+00
  0.00000000E+00  0.00000000E+00  0.00000000E+00
  0.00000000E+00  0.00000000E+00  0.00000000E+00
  0.00000000E+00  0.00000000E+00  0.00000000E+00
  0.00000000E+00  0.00000000E+00  0.00000000E+00
  0.00000000E+00  0.00000000E+00  0.00000000E+00
  0.00000000E+00  0.00000000E+00  0.00000000E+00
  0.00000000E+00  0.00000000E+00  0.00000000E+00
  0.00000000E+00  0.00000000E+00  0.00000000E+00
  0.00000000E+00  0.00000000E+00  0.00000000E+00
  0.00000000E+00  0.00000000E+00  0.00000000E+00
