New structure
1.0
       11.0813398361         0.0000000000         0.0000000000
       -5.5406699181         9.5967218060         0.0000000000
        0.0000000000         0.0000000000        46.7639999390
  202    6    8
Direct
     0.000000000         0.166666999         0.000000000
     0.166666672         0.000000000         0.000000000
     0.000000000         0.666666985         0.000000000
     0.166666672         0.500000000         0.000000000
     0.333333343         0.333332986         0.000000000
     0.500000000         0.166666999         0.000000000
     0.666666687         0.000000000         0.000000000
     0.333332986         0.833333313         0.000000000
     0.500000000         0.666666985         0.000000000
     0.666666687         0.500000000         0.000000000
     0.833333313         0.333332986         0.000000000
     0.833333313         0.833333313         0.000000000
     0.000000000         0.500000000         0.055555556
     0.166666672         0.333332986         0.055555556
     0.333333343         0.166666672         0.055555556
     0.500000000         0.000000000         0.055555556
     0.166666672         0.833333015         0.055555556
     0.333333343         0.666666985         0.055555556
     0.500000000         0.500000000         0.055555556
     0.666666687         0.333332986         0.055555556
     0.833333313         0.166666999         0.055555556
     0.666666687         0.833333015         0.055555556
     0.833333313         0.666666985         0.055555556
     0.166666672         0.500000000         0.111111112
     0.500000000         0.166666999         0.111111112
     0.333332986         0.833333313         0.111111112
     0.500000000         0.666666985         0.111111112
     0.666666687         0.500000000         0.111111112
     0.833333313         0.333332986         0.111111112
     0.166666672         0.666666985         0.166666672
     0.333333343         0.500000000         0.166666672
     0.500000000         0.333332986         0.166666672
     0.666666687         0.166666999         0.166666672
     0.500000000         0.833333015         0.166666672
     0.833333313         0.500000000         0.166666672
     0.000000000         0.500000000         0.222222224
     0.166666672         0.333332986         0.222222224
     0.333333343         0.166666672         0.222222224
     0.500000000         0.000000000         0.222222224
     0.166666672         0.833333015         0.222222224
     0.333333343         0.666666985         0.222222224
     0.500000000         0.500000000         0.222222224
     0.666666687         0.333332986         0.222222224
     0.833333313         0.166666999         0.222222224
     0.666666687         0.833333015         0.222222224
     0.833333313         0.666666985         0.222222224
     0.000000000         0.333332986         0.277777791
     0.166666672         0.166666999         0.277777791
     0.333333343         0.000000000         0.277777791
     0.000000000         0.833333015         0.277777791
     0.166666672         0.666666985         0.277777791
     0.333333343         0.500000000         0.277777791
     0.500000000         0.333332986         0.277777791
     0.666666687         0.166666999         0.277777791
     0.833333313         0.000000000         0.277777791
     0.500000000         0.833333015         0.277777791
     0.666666687         0.666666985         0.277777791
     0.833333313         0.500000000         0.277777791
     0.000000000         0.000000000         0.333333343
     0.000000000         0.500000000         0.333333343
     0.166666672         0.333332986         0.333333343
     0.333333343         0.166666672         0.333333343
     0.500000000         0.000000000         0.333333343
     0.166666672         0.833333015         0.333333343
     0.333333343         0.666666985         0.333333343
     0.500000000         0.500000000         0.333333343
     0.666666687         0.333332986         0.333333343
     0.833333313         0.166666999         0.333333343
     0.666666687         0.833333015         0.333333343
     0.833333313         0.666666985         0.333333343
     0.000000000         0.333332986         0.388888896
     0.166666672         0.166666999         0.388888896
     0.333333343         0.000000000         0.388888896
     0.000000000         0.833333015         0.388888896
     0.166666672         0.666666985         0.388888896
     0.333333343         0.500000000         0.388888896
     0.500000000         0.333332986         0.388888896
     0.666666687         0.166666999         0.388888896
     0.833333313         0.000000000         0.388888896
     0.500000000         0.833333015         0.388888896
     0.666666687         0.666666985         0.388888896
     0.833333313         0.500000000         0.388888896
     0.000000000         0.500000000         0.444444448
     0.166666672         0.333332986         0.444444448
     0.333333343         0.166666672         0.444444448
     0.500000000         0.000000000         0.444444448
     0.166666672         0.833333015         0.444444448
     0.333333343         0.666666985         0.444444448
     0.500000000         0.500000000         0.444444448
     0.666666687         0.333332986         0.444444448
     0.833333313         0.166666999         0.444444448
     0.666666687         0.833333015         0.444444448
     0.833333313         0.666666985         0.444444448
     0.166666672         0.666666985         0.500000000
     0.333333343         0.500000000         0.500000000
     0.500000000         0.333332986         0.500000000
     0.666666687         0.166666999         0.500000000
     0.500000000         0.833333015         0.500000000
     0.833333313         0.500000000         0.500000000
     0.000000000         0.000000000         0.555555582
     0.000000000         0.500000000         0.555555582
     0.166666672         0.333332986         0.555555582
     0.333333343         0.166666672         0.555555582
     0.500000000         0.000000000         0.555555582
     0.166666672         0.833333015         0.555555582
     0.333333343         0.666666985         0.555555582
     0.500000000         0.500000000         0.555555582
     0.666666687         0.333332986         0.555555582
     0.833333313         0.166666999         0.555555582
     0.666666687         0.833333015         0.555555582
     0.833333313         0.666666985         0.555555582
     0.000000000         0.333332986         0.611111104
     0.166666672         0.166666999         0.611111104
     0.333333343         0.000000000         0.611111104
     0.000000000         0.833333015         0.611111104
     0.166666672         0.666666985         0.611111104
     0.333333343         0.500000000         0.611111104
     0.500000000         0.333332986         0.611111104
     0.666666687         0.166666999         0.611111104
     0.833333313         0.000000000         0.611111104
     0.500000000         0.833333015         0.611111104
     0.666666687         0.666666985         0.611111104
     0.833333313         0.500000000         0.611111104
     0.000000000         0.000000000         0.666666687
     0.000000000         0.500000000         0.666666687
     0.166666672         0.333332986         0.666666687
     0.333333343         0.166666672         0.666666687
     0.500000000         0.000000000         0.666666687
     0.166666672         0.833333015         0.666666687
     0.333333343         0.666666985         0.666666687
     0.500000000         0.500000000         0.666666687
     0.666666687         0.333332986         0.666666687
     0.833333313         0.166666999         0.666666687
     0.666666687         0.833333015         0.666666687
     0.833333313         0.666666985         0.666666687
     0.000000000         0.333332986         0.722222209
     0.166666672         0.166666999         0.722222209
     0.333333343         0.000000000         0.722222209
     0.000000000         0.833333015         0.722222209
     0.166666672         0.666666985         0.722222209
     0.333333343         0.500000000         0.722222209
     0.500000000         0.333332986         0.722222209
     0.666666687         0.166666999         0.722222209
     0.833333313         0.000000000         0.722222209
     0.500000000         0.833333015         0.722222209
     0.666666687         0.666666985         0.722222209
     0.833333313         0.500000000         0.722222209
     0.000000000         0.000000000         0.777777791
     0.000000000         0.500000000         0.777777791
     0.166666672         0.333332986         0.777777791
     0.333333343         0.166666672         0.777777791
     0.500000000         0.000000000         0.777777791
     0.166666672         0.833333015         0.777777791
     0.333333343         0.666666985         0.777777791
     0.500000000         0.500000000         0.777777791
     0.666666687         0.333332986         0.777777791
     0.833333313         0.166666999         0.777777791
     0.666666687         0.833333015         0.777777791
     0.833333313         0.666666985         0.777777791
     0.000000000         0.333332986         0.833333313
     0.166666672         0.166666999         0.833333313
     0.333333343         0.000000000         0.833333313
     0.000000000         0.833333015         0.833333313
     0.166666672         0.666666985         0.833333313
     0.333333343         0.500000000         0.833333313
     0.500000000         0.333332986         0.833333313
     0.666666687         0.166666999         0.833333313
     0.833333313         0.000000000         0.833333313
     0.500000000         0.833333015         0.833333313
     0.666666687         0.666666985         0.833333313
     0.833333313         0.500000000         0.833333313
     0.000000000         0.000000000         0.888888896
     0.000000000         0.500000000         0.888888896
     0.166666672         0.333332986         0.888888896
     0.333333343         0.166666672         0.888888896
     0.500000000         0.000000000         0.888888896
     0.166666672         0.833333015         0.888888896
     0.333333343         0.666666985         0.888888896
     0.500000000         0.500000000         0.888888896
     0.666666687         0.333332986         0.888888896
     0.833333313         0.166666999         0.888888896
     0.666666687         0.833333015         0.888888896
     0.833333313         0.666666985         0.888888896
     0.000000000         0.333332986         0.944444418
     0.166666672         0.166666999         0.944444418
     0.333333343         0.000000000         0.944444418
     0.000000000         0.833333015         0.944444418
     0.166666672         0.666666985         0.944444418
     0.333333343         0.500000000         0.944444418
     0.500000000         0.333332986         0.944444418
     0.666666687         0.166666999         0.944444418
     0.833333313         0.000000000         0.944444418
     0.500000000         0.833333015         0.944444418
     0.666666687         0.666666985         0.944444418
     0.833333313         0.500000000         0.944444418
     0.000000000         0.166666999         0.111111112
     0.166666672         0.000000000         0.111111112
     0.833333313         0.833333313         0.111111112
     0.166666672         0.166666999         0.166666672
     0.000000000         0.833333015         0.166666672
     0.833333313         0.000000000         0.166666672
     0.166666672         0.166666999         0.500000000
     0.000000000         0.833333015         0.500000000
     0.833333313         0.000000000         0.500000000
     0.000000000         0.000000000         0.055555556
     0.000000000         0.666666985         0.111111112
     0.333333343         0.333332986         0.111111112
     0.666666687         0.000000000         0.111111112
     0.000000000         0.333332986         0.166666672
     0.333333343         0.000000000         0.166666672
     0.666666687         0.666666985         0.166666672
     0.000000000         0.000000000         0.222222224
     0.000000000         0.000000000         0.444444448
     0.000000000         0.333332986         0.500000000
     0.333333343         0.000000000         0.500000000
     0.666666687         0.666666985         0.500000000
