(Cu)4  (Fm-3m) 
   1.000
  3.61496   0.0000000000000000  0.0000000000000000
  0.000000000000000   3.61496   0.0000000000000000
  0.000000000000000   0.0000000000000000  3.61496
   4
Selective Dynamics   
Direct
  0.0000000000000000  0.0000000000000000  0.0000000000000000
  0.0000000000000000  0.5000000000000000  0.5000000000000000
  0.5000000000000000  0.0000000000000000  0.5000000000000000
  0.5000000000000000  0.5000000000000000  0.0000000000000000

