New structure
1.0
       11.0813398361         0.0000000000         0.0000000000
       -5.5406699181         9.5967218060         0.0000000000
        0.0000000000         0.0000000000        62.3519999300
  273    6    9
Direct
     0.000000000         0.166666999         0.000000000
     0.166666672         0.000000000         0.000000000
     0.000000000         0.666666985         0.000000000
     0.166666672         0.500000000         0.000000000
     0.333333343         0.333332986         0.000000000
     0.500000000         0.166666999         0.000000000
     0.666666687         0.000000000         0.000000000
     0.333332986         0.833333313         0.000000000
     0.500000000         0.666666985         0.000000000
     0.666666687         0.500000000         0.000000000
     0.833333313         0.333332986         0.000000000
     0.833333313         0.833333313         0.000000000
     0.000000000         0.500000000         0.041666667
     0.166666672         0.333332986         0.041666667
     0.333333343         0.166666672         0.041666667
     0.500000000         0.000000000         0.041666667
     0.166666672         0.833333015         0.041666667
     0.333333343         0.666666985         0.041666667
     0.500000000         0.500000000         0.041666667
     0.666666687         0.333332986         0.041666667
     0.833333313         0.166666999         0.041666667
     0.666666687         0.833333015         0.041666667
     0.833333313         0.666666985         0.041666667
     0.166666672         0.500000000         0.083333334
     0.500000000         0.166666999         0.083333334
     0.333332986         0.833333313         0.083333334
     0.500000000         0.666666985         0.083333334
     0.666666687         0.500000000         0.083333334
     0.833333313         0.333332986         0.083333334
     0.166666672         0.666666985         0.125000000
     0.333333343         0.500000000         0.125000000
     0.500000000         0.333332986         0.125000000
     0.666666687         0.166666999         0.125000000
     0.500000000         0.833333015         0.125000000
     0.833333313         0.500000000         0.125000000
     0.000000000         0.500000000         0.166666667
     0.166666672         0.333332986         0.166666667
     0.333333343         0.166666672         0.166666667
     0.500000000         0.000000000         0.166666667
     0.166666672         0.833333015         0.166666667
     0.333333343         0.666666985         0.166666667
     0.500000000         0.500000000         0.166666667
     0.666666687         0.333332986         0.166666667
     0.833333313         0.166666999         0.166666667
     0.666666687         0.833333015         0.166666667
     0.833333313         0.666666985         0.166666667
     0.000000000         0.333332986         0.208333334
     0.166666672         0.166666999         0.208333334
     0.333333343         0.000000000         0.208333334
     0.000000000         0.833333015         0.208333334
     0.166666672         0.666666985         0.208333334
     0.333333343         0.500000000         0.208333334
     0.500000000         0.333332986         0.208333334
     0.666666687         0.166666999         0.208333334
     0.833333313         0.000000000         0.208333334
     0.500000000         0.833333015         0.208333334
     0.666666687         0.666666985         0.208333334
     0.833333313         0.500000000         0.208333334
     0.000000000         0.000000000         0.250000000
     0.000000000         0.500000000         0.250000000
     0.166666672         0.333332986         0.250000000
     0.333333343         0.166666672         0.250000000
     0.500000000         0.000000000         0.250000000
     0.166666672         0.833333015         0.250000000
     0.333333343         0.666666985         0.250000000
     0.500000000         0.500000000         0.250000000
     0.666666687         0.333332986         0.250000000
     0.833333313         0.166666999         0.250000000
     0.666666687         0.833333015         0.250000000
     0.833333313         0.666666985         0.250000000
     0.000000000         0.333332986         0.291666667
     0.166666672         0.166666999         0.291666667
     0.333333343         0.000000000         0.291666667
     0.000000000         0.833333015         0.291666667
     0.166666672         0.666666985         0.291666667
     0.333333343         0.500000000         0.291666667
     0.500000000         0.333332986         0.291666667
     0.666666687         0.166666999         0.291666667
     0.833333313         0.000000000         0.291666667
     0.500000000         0.833333015         0.291666667
     0.666666687         0.666666985         0.291666667
     0.833333313         0.500000000         0.291666667
     0.000000000         0.000000000         0.333333334
     0.000000000         0.500000000         0.333333334
     0.166666672         0.333332986         0.333333334
     0.333333343         0.166666672         0.333333334
     0.500000000         0.000000000         0.333333334
     0.166666672         0.833333015         0.333333334
     0.333333343         0.666666985         0.333333334
     0.500000000         0.500000000         0.333333334
     0.666666687         0.333332986         0.333333334
     0.833333313         0.166666999         0.333333334
     0.666666687         0.833333015         0.333333334
     0.833333313         0.666666985         0.333333334
     0.166666672         0.666666985         0.375000000
     0.333333343         0.500000000         0.375000000
     0.500000000         0.333332986         0.375000000
     0.666666687         0.166666999         0.375000000
     0.500000000         0.833333015         0.375000000
     0.833333313         0.500000000         0.375000000
     0.000000000         0.333332986         0.375000000
     0.333333343         0.000000000         0.375000000
     0.666666687         0.666666985         0.375000000
     0.166666672         0.166666999         0.375000000
     0.000000000         0.833333015         0.375000000
     0.833333313         0.000000000         0.375000000
     0.000000000         0.000000000         0.416666667
     0.000000000         0.500000000         0.416666667
     0.166666672         0.333332986         0.416666667
     0.333333343         0.166666672         0.416666667
     0.500000000         0.000000000         0.416666667
     0.166666672         0.833333015         0.416666667
     0.333333343         0.666666985         0.416666667
     0.500000000         0.500000000         0.416666667
     0.666666687         0.333332986         0.416666667
     0.833333313         0.166666999         0.416666667
     0.666666687         0.833333015         0.416666667
     0.833333313         0.666666985         0.416666667
     0.166666672         0.666666985         0.458333334
     0.333333343         0.500000000         0.458333334
     0.500000000         0.333332986         0.458333334
     0.666666687         0.166666999         0.458333334
     0.500000000         0.833333015         0.458333334
     0.833333313         0.500000000         0.458333334
     0.000000000         0.333332986         0.458333334
     0.333333343         0.000000000         0.458333334
     0.666666687         0.666666985         0.458333334
     0.166666672         0.166666999         0.458333334
     0.000000000         0.833333015         0.458333334
     0.833333313         0.000000000         0.458333334
     0.000000000         0.500000000         0.500000000
     0.500000000         0.000000000         0.500000000
     0.333333343         0.666666985         0.500000000
     0.666666687         0.333332986         0.500000000
     0.666666687         0.833333015         0.500000000
     0.833333313         0.666666985         0.500000000
     0.500000000         0.500000000         0.500000000
     0.833333313         0.166666999         0.500000000
     0.166666672         0.833333015         0.500000000
     0.166666672         0.333332986         0.500000000
     0.333333343         0.166666672         0.500000000
     0.000000000         0.000000000         0.500000000
     0.166666672         0.666666985         0.541666667
     0.333333343         0.500000000         0.541666667
     0.500000000         0.333332986         0.541666667
     0.666666687         0.166666999         0.541666667
     0.500000000         0.833333015         0.541666667
     0.833333313         0.500000000         0.541666667
     0.000000000         0.333332986         0.541666667
     0.333333343         0.000000000         0.541666667
     0.666666687         0.666666985         0.541666667
     0.166666672         0.166666999         0.541666667
     0.000000000         0.833333015         0.541666667
     0.833333313         0.000000000         0.541666667
     0.000000000         0.500000000         0.583333334
     0.166666672         0.333332986         0.583333334
     0.333333343         0.166666672         0.583333334
     0.500000000         0.000000000         0.583333334
     0.166666672         0.833333015         0.583333334
     0.333333343         0.666666985         0.583333334
     0.000000000         0.000000000         0.583333334
     0.500000000         0.500000000         0.583333334
     0.833333313         0.166666999         0.583333334
     0.666666687         0.833333015         0.583333334
     0.833333313         0.666666985         0.583333334
     0.166666672         0.666666985         0.625000000
     0.333333343         0.500000000         0.625000000
     0.500000000         0.333332986         0.625000000
     0.666666687         0.166666999         0.625000000
     0.500000000         0.833333015         0.625000000
     0.833333313         0.500000000         0.625000000
     0.166666672         0.166666999         0.625000000
     0.000000000         0.833333015         0.625000000
     0.833333313         0.000000000         0.625000000
     0.000000000         0.333332986         0.625000000
     0.333333343         0.000000000         0.625000000
     0.666666687         0.666666985         0.625000000
     0.000000000         0.000000000         0.666666667
     0.000000000         0.500000000         0.666666667
     0.166666672         0.333332986         0.666666667
     0.333333343         0.166666672         0.666666667
     0.500000000         0.000000000         0.666666667
     0.166666672         0.833333015         0.666666667
     0.333333343         0.666666985         0.666666667
     0.500000000         0.500000000         0.666666667
     0.666666687         0.333332986         0.666666667
     0.833333313         0.166666999         0.666666667
     0.666666687         0.833333015         0.666666667
     0.833333313         0.666666985         0.666666667
     0.000000000         0.333332986         0.708333334
     0.166666672         0.166666999         0.708333334
     0.333333343         0.000000000         0.708333334
     0.000000000         0.833333015         0.708333334
     0.166666672         0.666666985         0.708333334
     0.333333343         0.500000000         0.708333334
     0.500000000         0.333332986         0.708333334
     0.666666687         0.166666999         0.708333334
     0.833333313         0.000000000         0.708333334
     0.500000000         0.833333015         0.708333334
     0.666666687         0.666666985         0.708333334
     0.833333313         0.500000000         0.708333334
     0.000000000         0.000000000         0.750000001
     0.000000000         0.500000000         0.750000001
     0.166666672         0.333332986         0.750000001
     0.333333343         0.166666672         0.750000001
     0.500000000         0.000000000         0.750000001
     0.166666672         0.833333015         0.750000001
     0.333333343         0.666666985         0.750000001
     0.500000000         0.500000000         0.750000001
     0.666666687         0.333332986         0.750000001
     0.833333313         0.166666999         0.750000001
     0.666666687         0.833333015         0.750000001
     0.833333313         0.666666985         0.750000001
     0.000000000         0.333332986         0.791666667
     0.166666672         0.166666999         0.791666667
     0.333333343         0.000000000         0.791666667
     0.000000000         0.833333015         0.791666667
     0.166666672         0.666666985         0.791666667
     0.333333343         0.500000000         0.791666667
     0.500000000         0.333332986         0.791666667
     0.666666687         0.166666999         0.791666667
     0.833333313         0.000000000         0.791666667
     0.500000000         0.833333015         0.791666667
     0.666666687         0.666666985         0.791666667
     0.833333313         0.500000000         0.791666667
     0.000000000         0.000000000         0.833333334
     0.000000000         0.500000000         0.833333334
     0.166666672         0.333332986         0.833333334
     0.333333343         0.166666672         0.833333334
     0.500000000         0.000000000         0.833333334
     0.166666672         0.833333015         0.833333334
     0.333333343         0.666666985         0.833333334
     0.500000000         0.500000000         0.833333334
     0.666666687         0.333332986         0.833333334
     0.833333313         0.166666999         0.833333334
     0.666666687         0.833333015         0.833333334
     0.833333313         0.666666985         0.833333334
     0.000000000         0.333332986         0.875000001
     0.166666672         0.166666999         0.875000001
     0.333333343         0.000000000         0.875000001
     0.000000000         0.833333015         0.875000001
     0.166666672         0.666666985         0.875000001
     0.333333343         0.500000000         0.875000001
     0.500000000         0.333332986         0.875000001
     0.666666687         0.166666999         0.875000001
     0.833333313         0.000000000         0.875000001
     0.500000000         0.833333015         0.875000001
     0.666666687         0.666666985         0.875000001
     0.833333313         0.500000000         0.875000001
     0.000000000         0.000000000         0.916666667
     0.000000000         0.500000000         0.916666667
     0.166666672         0.333332986         0.916666667
     0.333333343         0.166666672         0.916666667
     0.500000000         0.000000000         0.916666667
     0.166666672         0.833333015         0.916666667
     0.333333343         0.666666985         0.916666667
     0.500000000         0.500000000         0.916666667
     0.666666687         0.333332986         0.916666667
     0.833333313         0.166666999         0.916666667
     0.666666687         0.833333015         0.916666667
     0.833333313         0.666666985         0.916666667
     0.000000000         0.333332986         0.958333334
     0.166666672         0.166666999         0.958333334
     0.333333343         0.000000000         0.958333334
     0.000000000         0.833333015         0.958333334
     0.166666672         0.666666985         0.958333334
     0.333333343         0.500000000         0.958333334
     0.500000000         0.333332986         0.958333334
     0.666666687         0.166666999         0.958333334
     0.833333313         0.000000000         0.958333334
     0.500000000         0.833333015         0.958333334
     0.666666687         0.666666985         0.958333334
     0.833333313         0.500000000         0.958333334
     0.000000000         0.166666999         0.083333334
     0.166666672         0.000000000         0.083333334
     0.833333313         0.833333313         0.083333334
     0.166666672         0.166666999         0.125000000
     0.000000000         0.833333015         0.125000000
     0.833333313         0.000000000         0.125000000
     0.000000000         0.000000000         0.041666667
     0.000000000         0.666666985         0.083333334
     0.333333343         0.333332986         0.083333334
     0.666666687         0.000000000         0.083333334
     0.000000000         0.333332986         0.125000000
     0.333333343         0.000000000         0.125000000
     0.666666687         0.666666985         0.125000000
     0.000000000         0.000000000         0.166666667
     0.666666687         0.333332986         0.583333334
