# SCF input for VASP
# Note that VASP uses the FIRST occurence of a keyword
SYSTEM = Cu3.56 (VASP)

    PREC = Medium
  NBANDS = 300
    NELM = 100
  NELMIN = 2
   EDIFF = 1.0e-05
   ISPIN = 2
  ICHARG = 2
   LWAVE = .FALSE.
  LCHARG = .TRUE.
  ISMEAR = 0
   SIGMA = 0.1
   IALGO = 48
   LREAL = .FALSE.
  IBRION = 2
    ISIF = 2
   NFREE = 2
     NSW = 10