New structure
1.0
       16.6220097600         0.0000000000         0.0000000000
       -8.3110048770        14.3950827100         0.0000000000
        0.0000000000         0.0000000000        15.5880002975
   154 3 4
Direct
     0.111111113         0.000000000         0.000000000
     0.444444447	 0.000000000  	     0.000000000
     0.777777778  	 0.000000000  	     0.000000000
     0.000000000  	 0.111111113  	     0.000000000
     0.333333333 	 0.111111113	     0.000000000
     0.666666667	 0.111111113	     0.000000000
     0.222220000	 0.222220000	     0.000000000
     0.555553333	 0.222220000	     0.000000000
     0.888886667	 0.222220000	     0.000000000
     0.111111113	 0.333333333	     0.000000000
     0.444444447	 0.333333333  	     0.000000000
     0.777777778  	 0.333333333  	     0.000000000
     0.000000000         0.444446667         0.000000000
     0.333333333         0.444446667         0.000000000
     0.666666667 	 0.444446667         0.000000000
     0.222220000         0.555553333         0.000000000
     0.888886667	 0.555553333         0.000000000
     0.111111113         0.666666667         0.000000000
     0.444444447         0.666666667         0.000000000
     0.000000000         0.777780000         0.000000000
     0.333333333         0.777780000         0.000000000
     0.666666667         0.777780000         0.000000000
     0.222220000         0.888886667         0.000000000
     0.555553333         0.888886667         0.000000000
     0.888886667         0.888886667         0.000000000
     0.000000000	 0.000000000	     0.166666672
     0.333333333	 0.000000000	     0.166666672
     0.666666667	 0.000000000	     0.166666672
     0.222220000	 0.111113333	     0.166666672
     0.555553333	 0.111113333	     0.166666672
     0.888886667	 0.111113333	     0.166666672
     0.111113333	 0.222220000	     0.166666672
     0.444446667	 0.222220000	     0.166666672
     0.777780000	 0.222220000	     0.166666672
     0.000000000	 0.333333333         0.166666672
     0.666666667	 0.333333333         0.166666672
     0.222220000         0.444446667         0.166666672
     0.888886667         0.444446667         0.166666672
     0.111113333         0.555553333         0.166666672
     0.000000000         0.666666667         0.166666672
     0.333333333         0.666666667         0.166666672
     0.222220000         0.777780000         0.166666672
     0.888886667         0.777780000         0.166666672
     0.111113333         0.888886667         0.166666672
     0.444446667         0.888886667         0.166666672
     0.777780000         0.888886667         0.166666672
     0.111111113         0.000000000         0.333333343
     0.444444447	 0.000000000  	     0.333333343
     0.777777778  	 0.000000000  	     0.333333343
     0.000000000  	 0.111111113  	     0.333333343
     0.333333333 	 0.111111113	     0.333333343
     0.666666667	 0.111111113	     0.333333343
     0.222220000	 0.222220000	     0.333333343
     0.555553333	 0.222220000	     0.333333343
     0.888886667	 0.222220000	     0.333333343
     0.111111113	 0.333333333	     0.333333343
     0.444444447	 0.333333333  	     0.333333343
     0.777777778  	 0.333333333  	     0.333333343
     0.000000000         0.444446667         0.333333343
     0.333333333         0.444446667         0.333333343
     0.666666667 	 0.444446667         0.333333343
     0.222220000         0.555553333         0.333333343
     0.555553333	 0.555553333         0.333333343
     0.888886667	 0.555553333         0.333333343
     0.111111113         0.666666667         0.333333343
     0.444444447         0.666666667         0.333333343
     0.777777778         0.666666667         0.333333343     
     0.000000000         0.777780000         0.333333343
     0.333333333         0.777780000         0.333333343
     0.666666667         0.777780000         0.333333343
     0.222220000         0.888886667         0.333333343
     0.555553333         0.888886667         0.333333343
     0.888886667         0.888886667         0.333333343
     0.000000000	 0.000000000	     0.500000000
     0.333333333	 0.000000000	     0.500000000
     0.666666667	 0.000000000	     0.500000000
     0.222220000	 0.111113333	     0.500000000
     0.555553333	 0.111113333	     0.500000000
     0.888886667	 0.111113333	     0.500000000
     0.111113333	 0.222220000	     0.500000000
     0.444446667	 0.222220000	     0.500000000
     0.777780000	 0.222220000	     0.500000000
     0.000000000	 0.333333333         0.500000000
     0.333333333	 0.333333333         0.500000000
     0.666666667	 0.333333333         0.500000000
     0.222220000         0.444446667         0.500000000
     0.555553333         0.444446667         0.500000000
     0.888886667         0.444446667         0.500000000
     0.111113333         0.555553333         0.500000000
     0.444446667	 0.555553333         0.500000000
     0.777780000	 0.555553333         0.500000000
     0.000000000         0.666666667         0.500000000
     0.333333333         0.666666667         0.500000000
     0.666666667         0.666666667         0.500000000
     0.222220000         0.777780000         0.500000000
     0.555553333         0.777780000         0.500000000
     0.888886667         0.777780000         0.500000000
     0.111113333         0.888886667         0.500000000
     0.444446667         0.888886667         0.500000000
     0.777780000         0.888886667         0.500000000
     0.111111113         0.000000000         0.666666687
     0.444444447	 0.000000000  	     0.666666687
     0.777777778  	 0.000000000  	     0.666666687
     0.000000000  	 0.111111113  	     0.666666687
     0.333333333 	 0.111111113	     0.666666687
     0.666666667	 0.111111113	     0.666666687
     0.222220000	 0.222220000	     0.666666687
     0.555553333	 0.222220000	     0.666666687
     0.888886667	 0.222220000	     0.666666687
     0.111111113	 0.333333333	     0.666666687
     0.444444447	 0.333333333  	     0.666666687
     0.777777778  	 0.333333333  	     0.666666687
     0.000000000         0.444446667         0.666666687
     0.333333333         0.444446667         0.666666687
     0.666666667 	 0.444446667         0.666666687
     0.222220000         0.555553333         0.666666687
     0.555553333	 0.555553333         0.666666687
     0.888886667	 0.555553333         0.666666687
     0.111111113         0.666666667         0.666666687
     0.444444447         0.666666667         0.666666687
     0.777777778         0.666666667         0.666666687     
     0.000000000         0.777780000         0.666666687
     0.333333333         0.777780000         0.666666687
     0.666666667         0.777780000         0.666666687
     0.222220000         0.888886667         0.666666687
     0.555553333         0.888886667         0.666666687
     0.888886667         0.888886667         0.666666687
     0.000000000	 0.000000000	     0.833333313
     0.333333333	 0.000000000	     0.833333313
     0.666666667	 0.000000000	     0.833333313
     0.222220000	 0.111113333	     0.833333313
     0.555553333	 0.111113333	     0.833333313
     0.888886667	 0.111113333	     0.833333313
     0.111113333	 0.222220000	     0.833333313
     0.444446667	 0.222220000	     0.833333313
     0.777780000	 0.222220000	     0.833333313
     0.000000000	 0.333333333         0.833333313
     0.333333333	 0.333333333         0.833333313
     0.666666667	 0.333333333         0.833333313
     0.222220000         0.444446667         0.833333313
     0.555553333         0.444446667         0.833333313
     0.888886667         0.444446667         0.833333313
     0.111113333         0.555553333         0.833333313
     0.444446667	 0.555553333         0.833333313
     0.777780000	 0.555553333         0.833333313
     0.000000000         0.666666667         0.833333313
     0.333333333         0.666666667         0.833333313
     0.666666667         0.666666667         0.833333313
     0.222220000         0.777780000         0.833333313
     0.555553333         0.777780000         0.833333313
     0.888886667         0.777780000         0.833333313
     0.111113333         0.888886667         0.833333313
     0.444446667         0.888886667         0.833333313
     0.777780000         0.888886667         0.833333313
     0.444446667         0.555553333         0.166666672
     0.555553333         0.444446667         0.166666672
     0.666666667         0.666666667         0.166666672
     0.555553333         0.555553333         0.000000000
     0.333333333         0.333333333         0.166666672
     0.555553333         0.777780000         0.166666672
     0.777780000         0.555553333         0.166666672