New structure                           
   1.00000000000000     
    11.1253889650105755   -0.0024295336861413   -0.0000504861010803
    -5.5647985204470301    9.6336547038079257   -0.0000504861010803
    -0.0001609327356470   -0.0002787436747432   46.7228221936277635
 195   9  12
Direct
  0.0001964402977350  0.1647266138711956  0.9993758496229361
  0.1647262868711934  0.0001964402977350  0.9993758496229361
  0.0000629345072412  0.6681984874726581  0.9981350060304237
  0.1653178744767274  0.5020023972862475  0.9987334138808706
  0.3319607464376588  0.3319603894376613  0.9981017945112285
  0.5020023972862475  0.1653182014767296  0.9987334138808706
  0.6681981894726619  0.0000629345072412  0.9981350060304237
  0.3368828931850061  0.8350617644132257  0.9986941145962760
  0.4983203160448610  0.6635184816837238  0.9987003607890372
  0.6635181836837276  0.4983203160448610  0.9987003607890372
  0.8350617644132257  0.3368828931850061  0.9986941145962760
  0.8355534521540235  0.8355534521540235  0.9994524049923683
  0.0000596428294628  0.5018643298238459  0.0552048780286256
  0.1730771478100337  0.3415118328405100  0.0528256146585662
  0.3415121898405076  0.1730771478100337  0.0528256146585662
  0.5018643298238459  0.0000596428294628  0.0552048780286256
  0.1685882204047786  0.8271596965023633  0.0528369964655084
  0.3334099469513561  0.6668141873580566  0.0545990359741424
  0.4982676894482765  0.4982676894482765  0.0552203979391734
  0.6668138893580675  0.3334095899513585  0.0545990359741424
  0.8271599945023596  0.1685885474047808  0.0528369964655084
  0.6586676564475979  0.8317100430990649  0.0527484027695877
  0.8317103410990612  0.6586679544475942  0.0527484027695877
  0.1654809993574702  0.5124311563018935  0.1101764844906299
  0.5124311563018935  0.1654813263574724  0.1101764844906299
  0.3472988326931556  0.8349420815680446  0.1101728587423381
  0.4871913067309350  0.6533421494917917  0.1101287439666336
  0.6533418514917955  0.4871913067309350  0.1101287439666336
  0.8349420815680446  0.3472988326931556  0.1101728587423381
  0.1652653637949797  0.6524345496068449  0.1671108835486166
  0.3455336186135227  0.5121331374462983  0.1672688113089009
  0.5121331374462983  0.3455332616135252  0.1672688113089009
  0.6524342516068486  0.1652656907949819  0.1671108835486166
  0.4859408712628905  0.8333633352020442  0.1670824426264161
  0.8333636332020404  0.4859408712628905  0.1670824426264161
  0.0007813579648044  0.4999173976990221  0.2222647885623417
  0.1657052784575370  0.3341281441246693  0.2261527109168568
  0.3341285011246669  0.1657052784575370  0.2261527109168568
  0.4999173976990221  0.0007813579648044  0.2222647885623417
  0.1745243129799121  0.8340981214038550  0.2243565325384012
  0.3307502498427937  0.6655196893943938  0.2229694173803125
  0.4970131429712552  0.4970131429712552  0.2216536182990225
  0.6655193913943975  0.3307498928427961  0.2229694173803125
  0.8340984194038512  0.1745246399799143  0.2243565325384012
  0.6550935190523219  0.8219417427050004  0.2247512042100794
  0.8219420407049967  0.6550938170523182  0.2247512042100794
  0.0056480894227704  0.3422234595309774  0.2786718196353348
  0.3422238165309750  0.0056480894227704  0.2786718196353348
  0.9955271932598180  0.8356331367261873  0.2768502720145918
  0.1657865103809115  0.6716904782752238  0.2788382336697595
  0.3344591309210614  0.5063144992116051  0.2782238320535981
  0.5063144992116051  0.3344587739210638  0.2782238320535981
  0.6716901802752275  0.1657868373809137  0.2788382336697595
  0.8356334347261765  0.9955271932598180  0.2768502720145918
  0.4999607812414553  0.8359710533241653  0.2801691696709483
  0.6613586336345776  0.6613589316345738  0.2793949499530655
  0.8359713513241616  0.4999607812414553  0.2801691696709483
  0.0035885369939805  0.5114644457331252  0.3353788100545003
  0.5114644457331252  0.0035885369939805  0.3353788100545003
  0.3303417710985670  0.6750893893930012  0.3350044096652951
  0.6750890913930050  0.3303414140985694  0.3350044096652951
  0.6595164561274984  0.8229116104719623  0.3350183470729107
  0.8229119084719585  0.6595167541274947  0.3350183470729107
  0.0052044867276990  0.3358460206874199  0.3906677380446908
  0.1671491141288897  0.1671494411288919  0.3683018610199369
  0.3358463776874174  0.0052044867276990  0.3906677380446908
  0.9974384994246179  0.8365216904122974  0.3905470328715097
  0.1666634695360685  0.6753754836291677  0.3903673223233568
  0.3275458860089913  0.4976424246129412  0.3908288064255245
  0.4976424246129412  0.3275455290089937  0.3908288064255245
  0.6753751856291714  0.1666637965360707  0.3903673223233568
  0.8365219884122936  0.9974384994246179  0.3905470328715097
  0.5004861101796934  0.8332952475195157  0.3895517355312137
  0.6589695241876541  0.6589698221876503  0.3905175823200082
  0.8332955455195119  0.5004861101796934  0.3895517355312137
  0.0030637046821909  0.0030637046821909  0.4450066629533609
  0.0008351802937128  0.5002075357468811  0.4451572727141411
  0.1665546111062426  0.3301576211318462  0.4451171692323328
  0.3301579781318438  0.1665546111062426  0.4451171692323328
  0.5002075357468811  0.0008351802937128  0.4451572727141411
  0.1665937795857886  0.8347137777347626  0.4460840949115195
  0.3326412135866690  0.6665158726484322  0.4451887940919832
  0.4988324439762977  0.4988324439762977  0.4461265654381066
  0.6665155746484359  0.3326408565866714  0.4451887940919832
  0.8347140757347589  0.1665941065857908  0.4460840949115195
  0.6672045657547656  0.8331779561156551  0.4451156684458155
  0.8331782541156514  0.6672048637547618  0.4451156684458155
  0.0006428102337566  0.3336057027101020  0.5008231382853126
  0.1665175937543282  0.1665179207543304  0.5007136406685788
  0.3336060597100996  0.0006428102337566  0.5008231382853126
  0.9996824969248905  0.8336975633339776  0.5007759047900109
  0.1665946141944517  0.6663935954773024  0.5006677057899580
  0.3325721647400002  0.4994851710250074  0.5008026982435112
  0.4994851710250074  0.3325718077400026  0.5008026982435112
  0.6663932974773061  0.1665949411944538  0.5006677057899580
  0.8336978613339738  0.9996824969248905  0.5007759047900109
  0.5001137930040400  0.8333153760068868  0.5005500001385599
  0.6669265095757240  0.6669268075757202  0.5006490503416714
  0.8333156740068830  0.5001137930040400  0.5005500001385599
  0.0001390662349152  0.0001390662349152  0.5560325927923770
  0.9999056481367887  0.5000172628637714  0.5560275700973634
  0.1666079226405799  0.3330128911465522  0.5560756693231639
  0.3330132481465498  0.1666079226405799  0.5560756693231639
  0.5000172628637714  0.9999056481367887  0.5560275700973634
  0.1665276481182545  0.8334150370031068  0.5562758494044644
  0.3333271154367381  0.6666935098964828  0.5559816675625839
  0.4998175182672355  0.4998175182672355  0.5562762983056047
  0.6666932118964866  0.3333267584367405  0.5559816675625839
  0.8334153350031031  0.1665279751182567  0.5562758494044644
  0.6664899997941731  0.8332511216120508  0.5559791125912312
  0.8332514196120471  0.6664902977941694  0.5559791125912312
  0.9999542758048818  0.3332048126804708  0.6114499708811607
  0.1667501010622559  0.1667504280622580  0.6114577730340045
  0.3332051696804683  0.9999542758048818  0.6114499708811607
  0.0001061953118651  0.8333171281258061  0.6114441703789879
  0.1666791315541545  0.6668037617628499  0.6113725400969727
  0.3333471011389975  0.4999138181507803  0.6114411784127611
  0.4999138181507803  0.3333467441389999  0.6114411784127611
  0.6668034637628537  0.1666794585541567  0.6113725400969727
  0.8333174261258094  0.0001061953118651  0.6114441703789879
  0.4999359378068604  0.8333284369973697  0.6113121508294554
  0.6664980877571338  0.6664983857571301  0.6113549634394531
  0.8333287349973659  0.4999359378068604  0.6113121508294554
  0.9999804405738999  0.9999804405738999  0.6667680616064757
  0.9998568418935889  0.4999300614856637  0.6667054851505370
  0.1666578845456144  0.3332700119453520  0.6667253083579752
  0.3332703689453496  0.1666578845456144  0.6667253083579752
  0.4999300614856637  0.9998568418935889  0.6667054851505370
  0.1666146554331291  0.8332781749489726  0.6667515136380757
  0.3333610510012974  0.6667108328217424  0.6667118473498377
  0.4999481813458360  0.4999481813458360  0.6667559623147667
  0.6667105348217532  0.3333606940012999  0.6667118473498377
  0.8332784729489688  0.1666149824331313  0.6667515136380757
  0.6666195942264963  0.8333210918591334  0.6666877745781576
  0.8333213898591296  0.6666198922264925  0.6666877745781576
  0.9999512278757194  0.3333647892523786  0.7220882130231203
  0.1667576012118275  0.1667579282118297  0.7220082851485827
  0.3333651462523761  0.9999512278757194  0.7220882130231203
  0.0000222700004215  0.8332411887407432  0.7220403756954070
  0.1667260293904036  0.6667564655410700  0.7220403025362003
  0.3334693553559163  0.5001164534192313  0.7220635583661803
  0.5001164534192313  0.3334689983559187  0.7220635583661803
  0.6667561675410738  0.1667263563904058  0.7220403025362003
  0.8332414867407394  0.0000222700004215  0.7220403756954070
  0.4998999713403052  0.8333171602879759  0.7220021573366822
  0.6665225944490984  0.6665228924490947  0.7220707559275326
  0.8333174582879721  0.4998999713403052  0.7220021573366822
  0.9999862004167497  0.9999862004167497  0.7773342565492243
  0.9999453328095598  0.4999679230857197  0.7773038248261628
  0.1667025087570977  0.3335158158505749  0.7773183710443945
  0.3335161728505724  0.1667025087570977  0.7773183710443945
  0.4999679230857197  0.9999453328095598  0.7773038248261628
  0.1668451490576004  0.8332945596657098  0.7773482781840997
  0.3333455542818129  0.6666881724868432  0.7773633842420864
  0.4999802487838494  0.4999802487838494  0.7773921002429063
  0.6666878744868470  0.3333451972818153  0.7773633842420864
  0.8332948576657060  0.1668454760576026  0.7773482781840997
  0.6664542618283420  0.8331576396209286  0.7772775592343066
  0.8331579376209248  0.6664545598283382  0.7772775592343066
  0.9999761750150071  0.3333894132148885  0.8325643533409988
  0.1666568975739935  0.1666572245739957  0.8324465608583722
  0.3333897702148860  0.9999761750150071  0.8325643533409988
  0.0001002389303935  0.8334077970136278  0.8324782126704022
  0.1666149748919992  0.6667592231142763  0.8326400728357797
  0.3335120555846984  0.4999981894026320  0.8326393467853563
  0.4999981894026320  0.3335116985847009  0.8326393467853563
  0.6667589251142800  0.1666153018920014  0.8326400728357797
  0.8334080950136240  0.0001002389303935  0.8324782126704022
  0.5001471563617628  0.8334740296474408  0.8326213076971456
  0.6666113923847377  0.6666116903847339  0.8325791248149343
  0.8334743276474370  0.5001471563617628  0.8326213076971456
  0.9999451863308195  0.9999451863308195  0.8874832725119433
  0.0000166437629829  0.4998286916369281  0.8878008812588902
  0.1668758996215587  0.3335642329959398  0.8876887043608406
  0.3335645899959374  0.1668758996215587  0.8876887043608406
  0.4998286916369281  0.0000166437629829  0.8878008812588902
  0.1666850635473125  0.8331932089016476  0.8877436962534020
  0.3334007271423332  0.6667940575538296  0.8876961992512094
  0.5003356044325002  0.5003356044325002  0.8878485911203029
  0.6667937595538334  0.3334003701423356  0.8876961992512094
  0.8331935069016438  0.1666853905473147  0.8877436962534020
  0.6664752223852872  0.8332840482876946  0.8877135828595684
  0.8332843462876909  0.6664755203852835  0.8877135828595684
  0.0001348410768784  0.3332110463275058  0.9433900568537368
  0.1661181479330551  0.1661184749330573  0.9428982068819067
  0.3332114033275033  0.0001348410768784  0.9433900568537368
  0.0000230331119155  0.8340373130369443  0.9429687901183499
  0.1670157960132101  0.6673941779118948  0.9430678664860181
  0.3329236832276479  0.4998978502679066  0.9430592499820776
  0.4998978502679066  0.3329233262276503  0.9430592499820776
  0.6673938799118986  0.1670161230132123  0.9430678664860181
  0.8340376110369405  0.0000230331119155  0.9429687901183499
  0.5003709856992131  0.8330824339764504  0.9430370223103424
  0.6669507446521763  0.6669510426521725  0.9434184827333709
  0.8330827319764467  0.5003709856992131  0.9430370223103424
  0.9999957771256547  0.2307670799997581  0.0991316747733322
  0.2307667529997559  0.9999957771256547  0.0991316747733322
  0.7685240799063564  0.7685240799063564  0.0990366560658700
  0.2327226966155038  0.2327230236155060  0.1787785906651962
  0.9977044607674799  0.7650840556224594  0.1787952851111569
  0.7650843536224556  0.9977044607674799  0.1787952851111569
  0.9488853893500320  0.9488853893500320  0.3338964992955979
  0.1669393810301685  0.3851439539858248  0.3342828517669574
  0.3851443109858224  0.1669393810301685  0.3342828517669574
  0.9998589944051801  0.9998589944051801  0.0650444874218081
  0.9999314118920353  0.7143921652836767  0.1150246506611055
  0.2857849157177412  0.2857845587177437  0.1150213605656276
  0.7143918672836804  0.9999314118920353  0.1150246506611055
  0.0008977651991486  0.2875958456944687  0.1626886250545496
  0.2875962026944663  0.0008977651991486  0.1626886250545496
  0.7117867589546236  0.7117870569546199  0.1623059022119122
  0.9969523856727278  0.9969523856727278  0.2108711301038682
  0.1691469328902002  0.1691472598902024  0.2938874051829430
  0.4730753264076029  0.4730753264076029  0.3347954524216945
  0.8602047722592516  0.1663387201997040  0.3340408113170454
  0.1663383931997018  0.8602044742592554  0.3340408113170454
 
  0.00000000E+00  0.00000000E+00  0.00000000E+00
  0.00000000E+00  0.00000000E+00  0.00000000E+00
  0.00000000E+00  0.00000000E+00  0.00000000E+00
  0.00000000E+00  0.00000000E+00  0.00000000E+00
  0.00000000E+00  0.00000000E+00  0.00000000E+00
  0.00000000E+00  0.00000000E+00  0.00000000E+00
  0.00000000E+00  0.00000000E+00  0.00000000E+00
  0.00000000E+00  0.00000000E+00  0.00000000E+00
  0.00000000E+00  0.00000000E+00  0.00000000E+00
  0.00000000E+00  0.00000000E+00  0.00000000E+00
  0.00000000E+00  0.00000000E+00  0.00000000E+00
  0.00000000E+00  0.00000000E+00  0.00000000E+00
  0.00000000E+00  0.00000000E+00  0.00000000E+00
  0.00000000E+00  0.00000000E+00  0.00000000E+00
  0.00000000E+00  0.00000000E+00  0.00000000E+00
  0.00000000E+00  0.00000000E+00  0.00000000E+00
  0.00000000E+00  0.00000000E+00  0.00000000E+00
  0.00000000E+00  0.00000000E+00  0.00000000E+00
  0.00000000E+00  0.00000000E+00  0.00000000E+00
  0.00000000E+00  0.00000000E+00  0.00000000E+00
  0.00000000E+00  0.00000000E+00  0.00000000E+00
  0.00000000E+00  0.00000000E+00  0.00000000E+00
  0.00000000E+00  0.00000000E+00  0.00000000E+00
  0.00000000E+00  0.00000000E+00  0.00000000E+00
  0.00000000E+00  0.00000000E+00  0.00000000E+00
  0.00000000E+00  0.00000000E+00  0.00000000E+00
  0.00000000E+00  0.00000000E+00  0.00000000E+00
  0.00000000E+00  0.00000000E+00  0.00000000E+00
  0.00000000E+00  0.00000000E+00  0.00000000E+00
  0.00000000E+00  0.00000000E+00  0.00000000E+00
  0.00000000E+00  0.00000000E+00  0.00000000E+00
  0.00000000E+00  0.00000000E+00  0.00000000E+00
  0.00000000E+00  0.00000000E+00  0.00000000E+00
  0.00000000E+00  0.00000000E+00  0.00000000E+00
  0.00000000E+00  0.00000000E+00  0.00000000E+00
  0.00000000E+00  0.00000000E+00  0.00000000E+00
  0.00000000E+00  0.00000000E+00  0.00000000E+00
  0.00000000E+00  0.00000000E+00  0.00000000E+00
  0.00000000E+00  0.00000000E+00  0.00000000E+00
  0.00000000E+00  0.00000000E+00  0.00000000E+00
  0.00000000E+00  0.00000000E+00  0.00000000E+00
  0.00000000E+00  0.00000000E+00  0.00000000E+00
  0.00000000E+00  0.00000000E+00  0.00000000E+00
  0.00000000E+00  0.00000000E+00  0.00000000E+00
  0.00000000E+00  0.00000000E+00  0.00000000E+00
  0.00000000E+00  0.00000000E+00  0.00000000E+00
  0.00000000E+00  0.00000000E+00  0.00000000E+00
  0.00000000E+00  0.00000000E+00  0.00000000E+00
  0.00000000E+00  0.00000000E+00  0.00000000E+00
  0.00000000E+00  0.00000000E+00  0.00000000E+00
  0.00000000E+00  0.00000000E+00  0.00000000E+00
  0.00000000E+00  0.00000000E+00  0.00000000E+00
  0.00000000E+00  0.00000000E+00  0.00000000E+00
  0.00000000E+00  0.00000000E+00  0.00000000E+00
  0.00000000E+00  0.00000000E+00  0.00000000E+00
  0.00000000E+00  0.00000000E+00  0.00000000E+00
  0.00000000E+00  0.00000000E+00  0.00000000E+00
  0.00000000E+00  0.00000000E+00  0.00000000E+00
  0.00000000E+00  0.00000000E+00  0.00000000E+00
  0.00000000E+00  0.00000000E+00  0.00000000E+00
  0.00000000E+00  0.00000000E+00  0.00000000E+00
  0.00000000E+00  0.00000000E+00  0.00000000E+00
  0.00000000E+00  0.00000000E+00  0.00000000E+00
  0.00000000E+00  0.00000000E+00  0.00000000E+00
  0.00000000E+00  0.00000000E+00  0.00000000E+00
  0.00000000E+00  0.00000000E+00  0.00000000E+00
  0.00000000E+00  0.00000000E+00  0.00000000E+00
  0.00000000E+00  0.00000000E+00  0.00000000E+00
  0.00000000E+00  0.00000000E+00  0.00000000E+00
  0.00000000E+00  0.00000000E+00  0.00000000E+00
  0.00000000E+00  0.00000000E+00  0.00000000E+00
  0.00000000E+00  0.00000000E+00  0.00000000E+00
  0.00000000E+00  0.00000000E+00  0.00000000E+00
  0.00000000E+00  0.00000000E+00  0.00000000E+00
  0.00000000E+00  0.00000000E+00  0.00000000E+00
  0.00000000E+00  0.00000000E+00  0.00000000E+00
  0.00000000E+00  0.00000000E+00  0.00000000E+00
  0.00000000E+00  0.00000000E+00  0.00000000E+00
  0.00000000E+00  0.00000000E+00  0.00000000E+00
  0.00000000E+00  0.00000000E+00  0.00000000E+00
  0.00000000E+00  0.00000000E+00  0.00000000E+00
  0.00000000E+00  0.00000000E+00  0.00000000E+00
  0.00000000E+00  0.00000000E+00  0.00000000E+00
  0.00000000E+00  0.00000000E+00  0.00000000E+00
  0.00000000E+00  0.00000000E+00  0.00000000E+00
  0.00000000E+00  0.00000000E+00  0.00000000E+00
  0.00000000E+00  0.00000000E+00  0.00000000E+00
  0.00000000E+00  0.00000000E+00  0.00000000E+00
  0.00000000E+00  0.00000000E+00  0.00000000E+00
  0.00000000E+00  0.00000000E+00  0.00000000E+00
  0.00000000E+00  0.00000000E+00  0.00000000E+00
  0.00000000E+00  0.00000000E+00  0.00000000E+00
  0.00000000E+00  0.00000000E+00  0.00000000E+00
  0.00000000E+00  0.00000000E+00  0.00000000E+00
  0.00000000E+00  0.00000000E+00  0.00000000E+00
  0.00000000E+00  0.00000000E+00  0.00000000E+00
  0.00000000E+00  0.00000000E+00  0.00000000E+00
  0.00000000E+00  0.00000000E+00  0.00000000E+00
  0.00000000E+00  0.00000000E+00  0.00000000E+00
  0.00000000E+00  0.00000000E+00  0.00000000E+00
  0.00000000E+00  0.00000000E+00  0.00000000E+00
  0.00000000E+00  0.00000000E+00  0.00000000E+00
  0.00000000E+00  0.00000000E+00  0.00000000E+00
  0.00000000E+00  0.00000000E+00  0.00000000E+00
  0.00000000E+00  0.00000000E+00  0.00000000E+00
  0.00000000E+00  0.00000000E+00  0.00000000E+00
  0.00000000E+00  0.00000000E+00  0.00000000E+00
  0.00000000E+00  0.00000000E+00  0.00000000E+00
  0.00000000E+00  0.00000000E+00  0.00000000E+00
  0.00000000E+00  0.00000000E+00  0.00000000E+00
  0.00000000E+00  0.00000000E+00  0.00000000E+00
  0.00000000E+00  0.00000000E+00  0.00000000E+00
  0.00000000E+00  0.00000000E+00  0.00000000E+00
  0.00000000E+00  0.00000000E+00  0.00000000E+00
  0.00000000E+00  0.00000000E+00  0.00000000E+00
  0.00000000E+00  0.00000000E+00  0.00000000E+00
  0.00000000E+00  0.00000000E+00  0.00000000E+00
  0.00000000E+00  0.00000000E+00  0.00000000E+00
  0.00000000E+00  0.00000000E+00  0.00000000E+00
  0.00000000E+00  0.00000000E+00  0.00000000E+00
  0.00000000E+00  0.00000000E+00  0.00000000E+00
  0.00000000E+00  0.00000000E+00  0.00000000E+00
  0.00000000E+00  0.00000000E+00  0.00000000E+00
  0.00000000E+00  0.00000000E+00  0.00000000E+00
  0.00000000E+00  0.00000000E+00  0.00000000E+00
  0.00000000E+00  0.00000000E+00  0.00000000E+00
  0.00000000E+00  0.00000000E+00  0.00000000E+00
  0.00000000E+00  0.00000000E+00  0.00000000E+00
  0.00000000E+00  0.00000000E+00  0.00000000E+00
  0.00000000E+00  0.00000000E+00  0.00000000E+00
  0.00000000E+00  0.00000000E+00  0.00000000E+00
  0.00000000E+00  0.00000000E+00  0.00000000E+00
  0.00000000E+00  0.00000000E+00  0.00000000E+00
  0.00000000E+00  0.00000000E+00  0.00000000E+00
  0.00000000E+00  0.00000000E+00  0.00000000E+00
  0.00000000E+00  0.00000000E+00  0.00000000E+00
  0.00000000E+00  0.00000000E+00  0.00000000E+00
  0.00000000E+00  0.00000000E+00  0.00000000E+00
  0.00000000E+00  0.00000000E+00  0.00000000E+00
  0.00000000E+00  0.00000000E+00  0.00000000E+00
  0.00000000E+00  0.00000000E+00  0.00000000E+00
  0.00000000E+00  0.00000000E+00  0.00000000E+00
  0.00000000E+00  0.00000000E+00  0.00000000E+00
  0.00000000E+00  0.00000000E+00  0.00000000E+00
  0.00000000E+00  0.00000000E+00  0.00000000E+00
  0.00000000E+00  0.00000000E+00  0.00000000E+00
  0.00000000E+00  0.00000000E+00  0.00000000E+00
  0.00000000E+00  0.00000000E+00  0.00000000E+00
  0.00000000E+00  0.00000000E+00  0.00000000E+00
  0.00000000E+00  0.00000000E+00  0.00000000E+00
  0.00000000E+00  0.00000000E+00  0.00000000E+00
  0.00000000E+00  0.00000000E+00  0.00000000E+00
  0.00000000E+00  0.00000000E+00  0.00000000E+00
  0.00000000E+00  0.00000000E+00  0.00000000E+00
  0.00000000E+00  0.00000000E+00  0.00000000E+00
  0.00000000E+00  0.00000000E+00  0.00000000E+00
  0.00000000E+00  0.00000000E+00  0.00000000E+00
  0.00000000E+00  0.00000000E+00  0.00000000E+00
  0.00000000E+00  0.00000000E+00  0.00000000E+00
  0.00000000E+00  0.00000000E+00  0.00000000E+00
  0.00000000E+00  0.00000000E+00  0.00000000E+00
  0.00000000E+00  0.00000000E+00  0.00000000E+00
  0.00000000E+00  0.00000000E+00  0.00000000E+00
  0.00000000E+00  0.00000000E+00  0.00000000E+00
  0.00000000E+00  0.00000000E+00  0.00000000E+00
  0.00000000E+00  0.00000000E+00  0.00000000E+00
  0.00000000E+00  0.00000000E+00  0.00000000E+00
  0.00000000E+00  0.00000000E+00  0.00000000E+00
  0.00000000E+00  0.00000000E+00  0.00000000E+00
  0.00000000E+00  0.00000000E+00  0.00000000E+00
  0.00000000E+00  0.00000000E+00  0.00000000E+00
  0.00000000E+00  0.00000000E+00  0.00000000E+00
  0.00000000E+00  0.00000000E+00  0.00000000E+00
  0.00000000E+00  0.00000000E+00  0.00000000E+00
  0.00000000E+00  0.00000000E+00  0.00000000E+00
  0.00000000E+00  0.00000000E+00  0.00000000E+00
  0.00000000E+00  0.00000000E+00  0.00000000E+00
  0.00000000E+00  0.00000000E+00  0.00000000E+00
  0.00000000E+00  0.00000000E+00  0.00000000E+00
  0.00000000E+00  0.00000000E+00  0.00000000E+00
  0.00000000E+00  0.00000000E+00  0.00000000E+00
  0.00000000E+00  0.00000000E+00  0.00000000E+00
  0.00000000E+00  0.00000000E+00  0.00000000E+00
  0.00000000E+00  0.00000000E+00  0.00000000E+00
  0.00000000E+00  0.00000000E+00  0.00000000E+00
  0.00000000E+00  0.00000000E+00  0.00000000E+00
  0.00000000E+00  0.00000000E+00  0.00000000E+00
  0.00000000E+00  0.00000000E+00  0.00000000E+00
  0.00000000E+00  0.00000000E+00  0.00000000E+00
  0.00000000E+00  0.00000000E+00  0.00000000E+00
  0.00000000E+00  0.00000000E+00  0.00000000E+00
  0.00000000E+00  0.00000000E+00  0.00000000E+00
  0.00000000E+00  0.00000000E+00  0.00000000E+00
  0.00000000E+00  0.00000000E+00  0.00000000E+00
  0.00000000E+00  0.00000000E+00  0.00000000E+00
  0.00000000E+00  0.00000000E+00  0.00000000E+00
  0.00000000E+00  0.00000000E+00  0.00000000E+00
  0.00000000E+00  0.00000000E+00  0.00000000E+00
  0.00000000E+00  0.00000000E+00  0.00000000E+00
  0.00000000E+00  0.00000000E+00  0.00000000E+00
  0.00000000E+00  0.00000000E+00  0.00000000E+00
  0.00000000E+00  0.00000000E+00  0.00000000E+00
  0.00000000E+00  0.00000000E+00  0.00000000E+00
  0.00000000E+00  0.00000000E+00  0.00000000E+00
  0.00000000E+00  0.00000000E+00  0.00000000E+00
  0.00000000E+00  0.00000000E+00  0.00000000E+00
  0.00000000E+00  0.00000000E+00  0.00000000E+00
  0.00000000E+00  0.00000000E+00  0.00000000E+00
  0.00000000E+00  0.00000000E+00  0.00000000E+00
  0.00000000E+00  0.00000000E+00  0.00000000E+00
  0.00000000E+00  0.00000000E+00  0.00000000E+00
  0.00000000E+00  0.00000000E+00  0.00000000E+00
  0.00000000E+00  0.00000000E+00  0.00000000E+00
  0.00000000E+00  0.00000000E+00  0.00000000E+00
  0.00000000E+00  0.00000000E+00  0.00000000E+00
  0.00000000E+00  0.00000000E+00  0.00000000E+00
