New structure                           
   1.00000000000000     
    11.0816293501987850   -0.0055081124266091    0.0023081228339417
    -5.5455864793804768    9.6104746709723248   -0.0001955757858705
     0.0128940176655044    0.0062099065592260   62.3994894228989736
 273   6   9
Direct
  0.0003611176004767  0.1653000199215953  0.9993384017365230
  0.1653311544282445  0.0000033488489706  0.9992706925617227
  0.0001372031537343  0.6680843599587405  0.9983616404670670
  0.1656849095871777  0.5023033662233942  0.9989823811397756
  0.3322126529294493  0.3321422937916907  0.9983947459321101
  0.5023015359213332  0.1655128996403121  0.9988733600594770
  0.6685311450494922  0.0003951803220446  0.9984489931768863
  0.3369984529521801  0.8348155274211280  0.9989418334167084
  0.4985396542279190  0.6636990704601331  0.9989530514194129
  0.6635036852748968  0.4980946674490312  0.9988947596733695
  0.8350571468448109  0.3368272029733177  0.9989705175004318
  0.8351188076059941  0.8350856786493850  0.9992889575653408
  0.0004483958399888  0.5016508896624927  0.0413811922364431
  0.1740813046372907  0.3423146220682867  0.0395173437099032
  0.3424701598537823  0.1743775512300161  0.0393921996552180
  0.5011291863391705  0.0001940539709508  0.0413980085643857
  0.1684074707164598  0.8265163677149729  0.0393970595573521
  0.3336279499504116  0.6669799391012532  0.0410609845997385
  0.4995939421871896  0.4995875594509442  0.0413214157168795
  0.6672237755524151  0.3338138582308474  0.0409373277685106
  0.8269330145949638  0.1687299548979553  0.0396006395854158
  0.6589191777365713  0.8326177246535806  0.0395055215168370
  0.8322489968323268  0.6588051333839147  0.0394397955218651
  0.1662614224696455  0.5128061960959656  0.0827888608241025
  0.5130334061132871  0.1658555737402665  0.0826112470537197
  0.3469347909915896  0.8343884788821043  0.0827685215628975
  0.4883178084170225  0.6541643935384229  0.0826500052318409
  0.6542752680483517  0.4884194637866486  0.0825013688173470
  0.8348869804689087  0.3468941611616927  0.0827417136377164
  0.1662257115868542  0.6534804091958577  0.1254250946083957
  0.3471809617698085  0.5128391611933267  0.1254981891553157
  0.5128536650041795  0.3461229113261979  0.1251403485197429
  0.6530529466819388  0.1651709582137073  0.1254610109024270
  0.4884669304899916  0.8359948551320358  0.1256115608837902
  0.8335544795362608  0.4869741170410506  0.1254293196687968
  0.0041449018711219  0.4991677785211763  0.1670323305491479
  0.1743977528836780  0.3401725008476362  0.1693823418630203
  0.3404986065568778  0.1646275944948954  0.1677353438251075
  0.4991822444519158  0.0031399729957542  0.1674313018991569
  0.1713348551530345  0.8292017896813846  0.1687832024517348
  0.3340593793381501  0.6694308025173186  0.1673403345003450
  0.5024197811623168  0.5042488990140299  0.1663221853309764
  0.6682649106895227  0.3326942829020538  0.1667863061309589
  0.8363982243947348  0.1733389178050473  0.1690315551505464
  0.6591670402399785  0.8300987240143485  0.1687823458346003
  0.8219783426838134  0.6543367991176865  0.1693964981055913
  0.0021289975300647  0.3324742346603884  0.2100486610952714
  0.3269377199492922  0.9965407490366900  0.2099399438438496
  0.9970491381298885  0.8329663024936096  0.2088334437674106
  0.1653507569978387  0.6646691396443316  0.2095997952600541
  0.3367066980177214  0.5095961127898008  0.2097808588426275
  0.6684961908112044  0.1665588791072992  0.2098691299779318
  0.8344574126384501  0.0001172746673319  0.2090635683100359
  0.4974534712725927  0.8366960584536685  0.2095791091367545
  0.6659884842210317  0.6737525944231280  0.2100456428126876
  0.8380081181561465  0.4964835376778467  0.2096451599934710
  0.1592323869196122  0.1586451797852177  0.2091834080604968
  0.0028524442291769  0.4990140681610669  0.2514402826274917
  0.4986971194220544  0.0049602346994746  0.2510723685294209
  0.3326961996794182  0.6705648095076171  0.2511404513049129
  0.6689533186078904  0.3326975110636639  0.2516723153708043
  0.6659266364266330  0.8378317131759161  0.2513322660102304
  0.8269681072089483  0.6605718737125343  0.2506935546230906
  0.9951118268710175  0.9951554787112897  0.2513315906165090
  0.1723392898093863  0.3321364970568723  0.2507374505455218
  0.3288164825470759  0.1630210963947221  0.2518432019656345
  0.4994946442129304  0.5034333247462897  0.2520942230282657
  0.8365110626789232  0.1659930285222373  0.2513151332072283
  0.1604628240978556  0.8292210689056105  0.2512005386391962
  0.0006494522292755  0.3325752501921855  0.2926764000636695
  0.3313054745329822  0.9988070248711054  0.2926920010461842
  0.9979626298071764  0.8317484394999752  0.2926860264295499
  0.1658476026467710  0.6664396824307204  0.2927257002258727
  0.3324089531815488  0.5001437920365817  0.2926806638370039
  0.4994060667493301  0.3330398777875203  0.2928902240817024
  0.6664825094107343  0.1661492231465473  0.2926305073303723
  0.8327730108489675  0.9997003815587604  0.2928744768431315
  0.4993498308842206  0.8339943916519275  0.2926393030791985
  0.6667932990551790  0.6675487220420493  0.2927502607812045
  0.8332475403129891  0.4995888296837308  0.2926201025913713
  0.1650574486237346  0.1656280166350754  0.2927456560670336
  0.9996638941209852  0.4991164597642523  0.3339890062817901
  0.4994832449831463  0.0002496548790205  0.3340640511061252
  0.3334495181182788  0.6667371163893279  0.3340094596546379
  0.6661373927246643  0.3330312500341535  0.3342037904175328
  0.6658928859333173  0.8329438858440099  0.3340453112617823
  0.8326134885356922  0.6657327696972715  0.3340994238338908
  0.4999799649002625  0.4996491424193863  0.3342429329643650
  0.8333676349895214  0.1668446810249051  0.3340243923497681
  0.1660412547766370  0.8330992928429666  0.3340328751411050
  0.9998085047302467  0.9993517217817853  0.3340762119383172
  0.1671013081907375  0.3331908500125778  0.3341242108296569
  0.3333940486750535  0.1667288299883509  0.3342246450621218
  0.0000859194718359  0.3333129596004980  0.3754839217011536
  0.3330723401378748  0.0000058342758322  0.3755655741730592
  0.9996826602722990  0.8332315616049257  0.3754916063766416
  0.1664270414528062  0.6666406065115140  0.3755067418853315
  0.3333971696305156  0.5000359759990687  0.3755473187692289
  0.4998415705768195  0.3333246968089014  0.3756926460538708
  0.6666526079302670  0.1667032328996498  0.3755314963309715
  0.8333003992123693  0.0000153900509332  0.3755575576909180
  0.4999492883565892  0.8335665597463660  0.3754498728505240
  0.6665441675751964  0.6667349335793133  0.3755742178457879
  0.8332752787839866  0.4999622128663432  0.3755331836089724
  0.1665063520199226  0.1665255557245686  0.3755669063940132
  0.0000973998561946  0.4999995030502760  0.4169861296581416
  0.5000334265275086  0.0000175541644793  0.4169988355482488
  0.3333505616474923  0.6666788375328352  0.4169696402191008
  0.6666537529514969  0.3333448557527987  0.4170576516591566
  0.6666979773623964  0.8334216120829083  0.4169909194841068
  0.8333602612984734  0.6666241149584025  0.4170074920463236
  0.5000123419823552  0.4999248754124821  0.4170891223972504
  0.8334248876587793  0.1666428359071404  0.4169868419004601
  0.1665631087916708  0.8332235460984805  0.4169881057511020
  0.9999414651408500  0.9999306934080252  0.4169646489864007
  0.1667413474808370  0.3333253239268856  0.4170150188711119
  0.3333866296980332  0.1667292869798445  0.4170859966614842
  0.9999728708812583  0.3334196372498894  0.4585076054811310
  0.3333222103662763  0.0001640418382394  0.4585747019759125
  0.9999654559275086  0.8334677044115040  0.4584858114999477
  0.1666335253738893  0.6667742736972997  0.4585317823019324
  0.3333132418274332  0.5000523522885629  0.4585827835743359
  0.4999637877664398  0.3333916984079011  0.4586128550445565
  0.6666666816057614  0.1668007496010873  0.4585675336707311
  0.8333269092018156  0.0001150037607474  0.4585057894398545
  0.5000007488206322  0.8334356556174640  0.4585071244491559
  0.6666489378247888  0.6667436533780489  0.4585697548531513
  0.8332662671227951  0.5001081452646901  0.4585676195910295
  0.1667070206105379  0.1668181614617055  0.4585438508021085
  0.0000635138265537  0.4999950416985044  0.5001281481832365
  0.5000356954752121  0.0000697783743391  0.5001134630854764
  0.3333349850190501  0.6666519114812246  0.5001322871758731
  0.6667634340589217  0.3333199388770254  0.5001288992653201
  0.6667938733820336  0.8333953087407053  0.5001157655985793
  0.8333351840477405  0.6666181702608114  0.5001080807469620
  0.5000816560822017  0.5000395908021673  0.5001350948132455
  0.8333976397754199  0.1665890004773374  0.5001196174671634
  0.1666394028538960  0.8332602787839249  0.5001225519218835
  0.9999988429976767  0.9999536062537970  0.5000957520443237
  0.1667847969262368  0.3332707286997518  0.5001037333992215
  0.3332946617522481  0.1666012816921096  0.5001247384808423
  0.9999779156475341  0.3333575386838277  0.5417092288053453
  0.1665479264763192  0.1666082716931712  0.5417023958227887
  0.3332580554678373  0.0000463797517369  0.5417376305763426
  0.9999791568372416  0.8334571256283567  0.5416850776465054
  0.1666306873546830  0.6667236186499821  0.5417539648611722
  0.3332989683561536  0.5000306178713529  0.5417338679181114
  0.4999640370116722  0.3333699582490866  0.5417194973225392
  0.6666829677939248  0.1667275494443885  0.5417178048627420
  0.8334030686302683  0.0000529277819012  0.5417275685473868
  0.5000118740610162  0.8333908827534486  0.5417037038387704
  0.6666770954794785  0.6667485258905543  0.5417297419516842
  0.8333177673641714  0.5000409565164148  0.5417218817450902
  0.0000677399027609  0.9999422407584078  0.5833373648546001
  0.0000092386915611  0.4998688652075103  0.5833435920704915
  0.1666521261347214  0.3331172468186949  0.5833318496714526
  0.3332703055612214  0.1665281368663969  0.5833329535873801
  0.5000151251566152  0.9999344002632284  0.5833365002580777
  0.1666586722556076  0.8332925383084273  0.5833437090826408
  0.3333598107961180  0.6665526644361535  0.5833554378965715
  0.5001072191125076  0.4999555362779731  0.5833373873486138
  0.6667379827342614  0.3332467081358033  0.5833378097635205
  0.8333882280398726  0.1664715958955441  0.5833360805259957
  0.6668670815851030  0.8333301054643769  0.5833309803529971
  0.8334844223377686  0.6666704124841587  0.5833332663441695
  0.9999619902750396  0.3332601433833986  0.6249598774140637
  0.1664892400291649  0.1665035691571362  0.6249628194822279
  0.3332282383902694  0.9999769637655973  0.6249685580669464
  0.9999994001812880  0.8334791791728406  0.6249612639592996
  0.1666243745755338  0.6666850784905094  0.6249819266299781
  0.3332671601836097  0.4999570382376533  0.6249576857787886
  0.4999720295475925  0.3333006101784761  0.6249394974701232
  0.6667199616178934  0.1666825438409063  0.6249541641777014
  0.8334700944623492  0.0000136591566928  0.6249846952618228
  0.5000516187448412  0.8333558047566001  0.6249451794812231
  0.6667604438060764  0.6667708860529018  0.6249633200052855
  0.8333260427454476  0.5000371692417716  0.6249530787349755
  0.0000649604391896  0.9999425859394435  0.6666053888705150
  0.0000047762004698  0.4998193629951828  0.6665892144198082
  0.1666870657851049  0.3331747269273961  0.6665766139094416
  0.3333527729199020  0.1666091673289642  0.6665845774703314
  0.4999920833907510  0.9999440954319567  0.6665767505561107
  0.1666952038812113  0.8332893361108376  0.6665934235408884
  0.3333628758724743  0.6665425080975922  0.6665855951413064
  0.5001372801648145  0.4999506233716744  0.6665835467380319
  0.6667163595509606  0.3332656216862091  0.6665775643696108
  0.8333844015415153  0.1665228961767937  0.6665898277649873
  0.6668383226942964  0.8332872021140858  0.6665857689732420
  0.8334305614098696  0.6666171253276119  0.6665803997039887
  0.9999808223246376  0.3333394785691084  0.7081914794253308
  0.1666688759246426  0.1666985579805740  0.7082232690655559
  0.3333294327555407  0.0000608586753330  0.7081999840616291
  0.9999611681565028  0.8333508258953017  0.7082220671981858
  0.1666363270938191  0.6666235268826100  0.7081972772484093
  0.3333692759368532  0.5000728042736569  0.7081894164594544
  0.5000647129917581  0.3334132269397045  0.7081881489783868
  0.6666079141437322  0.1667449381269464  0.7081961165163904
  0.8333326416009683  0.0000435288403864  0.7082312847408261
  0.4999475459696114  0.8333583653557355  0.7081804809803742
  0.6666618866577920  0.6666785187586157  0.7082001262931215
  0.8332506920491269  0.4999364810227505  0.7081932681150676
  0.0000284463844977  0.9999728531740146  0.7498369042166715
  0.0000013932556371  0.4999549765845757  0.7497915208607679
  0.1667108696509700  0.3332931992059187  0.7497912890337588
  0.3334033887502557  0.1666889823411850  0.7497963990931851
  0.5000535329093196  0.9999994654755824  0.7497908955517971
  0.1666899513165419  0.8332530931014617  0.7497913089786934
  0.3333575655040590  0.6666086802796087  0.7498070919266056
  0.5000521365419033  0.4999335935425222  0.7497920328583305
  0.6666565019451482  0.3332848276035563  0.7498127090365827
  0.8332982042794939  0.1665763347871092  0.7497994624728364
  0.6667205430473473  0.8333239513731243  0.7497916404734752
  0.8333898940014990  0.6665872009263367  0.7497944508486398
  0.9999397303911124  0.3334233614297091  0.7913482908262068
  0.1667355633259007  0.1668382961383585  0.7913365424505585
  0.3333462811260475  0.0000895701303492  0.7913511175974079
  0.9999607333499938  0.8332797882532574  0.7913305779354118
  0.1666360787941130  0.6666790106554075  0.7913482742563929
  0.3333354318155131  0.5001489055579853  0.7913491962506782
  0.5000256777778418  0.3334468853616954  0.7913587760744605
  0.6665510358681672  0.1667406391319517  0.7913591316735875
  0.8331727095001540  0.0000691163115292  0.7913380613289860
  0.4998971515411057  0.8334060788244315  0.7913435004110738
  0.6665825670827701  0.6666898074398304  0.7913534996918159
  0.8332504123453077  0.4999876937179337  0.7913530603251502
  0.0000333243927102  0.9999807947329842  0.8328162709871521
  0.9999931557178670  0.5000823288563225  0.8328400991830307
  0.1667486386595272  0.3334969502818339  0.8328032960310168
  0.3335405723062621  0.1666630609745212  0.8328044118994953
  0.5001357823941106  0.9999945015155163  0.8328459089257265
  0.1668731387034157  0.8332291319937113  0.8327958537123834
  0.3333318093558191  0.6666091480057972  0.8328795096253145
  0.4999102422913424  0.4998592995675750  0.8328435417098987
  0.6666966243994281  0.3333006755368757  0.8328904543147218
  0.8332551615782506  0.1667606501451573  0.8328141102323912
  0.6665205902587772  0.8331543067721796  0.8328068749832127
  0.8331730496594503  0.6663746575376166  0.8328051160548782
  0.9999681895521348  0.3335195040616412  0.8742420006877509
  0.1667525985035070  0.1667801899093106  0.8741385092873202
  0.3335198288742305  0.0000529055731917  0.8742284476645636
  0.9999820905929298  0.8332774906310689  0.8741320447446768
  0.1665798540384529  0.6666173013137993  0.8743243957218994
  0.3333834633796400  0.5000113766573975  0.8743414410578367
  0.4999750820855127  0.3333966643181796  0.8743350580513223
  0.6665956608308932  0.1666356710989874  0.8743495257655667
  0.8332257271396841  0.0000091995998304  0.8741415020320176
  0.5000165576782223  0.8334417062849937  0.8743413405321050
  0.6664554656825672  0.6664985116550142  0.8742280887021465
  0.8333464381488653  0.4999885155308519  0.8743321011941489
  0.0000723649826639  0.9998687746006425  0.9153196431730990
  0.0001082549074383  0.5001107169427144  0.9156999941096160
  0.1666854979897820  0.3334183959776169  0.9155854120015618
  0.3335417861474212  0.1663880155389492  0.9155750847985118
  0.5003585598112750  0.9998155848236152  0.9157217835097953
  0.1670720564639581  0.8332316372251043  0.9155559139773928
  0.3335059684553556  0.6665344405373403  0.9156647032379368
  0.4997599421216705  0.4994997141361139  0.9157030433406277
  0.6667099847843900  0.3330898012864481  0.9156628290017537
  0.8335028100381123  0.1668174351225886  0.9156011257993981
  0.6666435171815124  0.8329098882705566  0.9155866619262127
  0.8331278231339638  0.6662527645562193  0.9155650664814559
  0.0001707824739370  0.3335701660691797  0.9574217871964379
  0.1662059163621521  0.1660232655918961  0.9569252577398046
  0.3336160034074638  0.9998541363556441  0.9573560182830860
  0.0000751322798251  0.8337437476477447  0.9568914542529825
  0.1673489856146375  0.6676167355075933  0.9571393388207383
  0.3325611625759635  0.4994939542553638  0.9571626798909350
  0.4994840665570237  0.3322174566665979  0.9571101049510702
  0.6678338707752616  0.1671250926444046  0.9571686914645383
  0.8340910458899344  0.9999766406942499  0.9569518003269550
  0.5008009638215469  0.8328226712302609  0.9571787901670987
  0.6665709003432809  0.6662973392439255  0.9573541975670210
  0.8329347337444304  0.5003576998192329  0.9571325526207985
  0.0011333619423226  0.2313649474954076  0.0742681719773870
  0.2311037040707475  0.0003485511766925  0.0739706137271980
  0.7704475652769318  0.7702517146715806  0.0741078553874033
  0.2290335836151769  0.2294802447928319  0.1335119127225255
  0.9970620610235912  0.7658666819961866  0.1342493615632137
  0.7719983026037411  0.0022586945346532  0.1339939783033302
  0.0008253492207331  0.0009409609923736  0.0482624752712297
  0.0005084442679433  0.7134027599840920  0.0861481386449867
  0.2882012587640403  0.2880738746352947  0.0860097722929396
  0.7142104418696960  0.0004346851151880  0.0862674648479427
  0.0011746280198892  0.2892112172951613  0.1223493121907140
  0.2839989008422208  0.9972162380267164  0.1217452964939270
  0.7134055692806314  0.7139296944951923  0.1219602054786506
  0.9994525577218241  0.9967353437929205  0.1597572529871272
  0.5002204345273071  0.3371221883403805  0.2096874514365368
 
  0.00000000E+00  0.00000000E+00  0.00000000E+00
  0.00000000E+00  0.00000000E+00  0.00000000E+00
  0.00000000E+00  0.00000000E+00  0.00000000E+00
  0.00000000E+00  0.00000000E+00  0.00000000E+00
  0.00000000E+00  0.00000000E+00  0.00000000E+00
  0.00000000E+00  0.00000000E+00  0.00000000E+00
  0.00000000E+00  0.00000000E+00  0.00000000E+00
  0.00000000E+00  0.00000000E+00  0.00000000E+00
  0.00000000E+00  0.00000000E+00  0.00000000E+00
  0.00000000E+00  0.00000000E+00  0.00000000E+00
  0.00000000E+00  0.00000000E+00  0.00000000E+00
  0.00000000E+00  0.00000000E+00  0.00000000E+00
  0.00000000E+00  0.00000000E+00  0.00000000E+00
  0.00000000E+00  0.00000000E+00  0.00000000E+00
  0.00000000E+00  0.00000000E+00  0.00000000E+00
  0.00000000E+00  0.00000000E+00  0.00000000E+00
  0.00000000E+00  0.00000000E+00  0.00000000E+00
  0.00000000E+00  0.00000000E+00  0.00000000E+00
  0.00000000E+00  0.00000000E+00  0.00000000E+00
  0.00000000E+00  0.00000000E+00  0.00000000E+00
  0.00000000E+00  0.00000000E+00  0.00000000E+00
  0.00000000E+00  0.00000000E+00  0.00000000E+00
  0.00000000E+00  0.00000000E+00  0.00000000E+00
  0.00000000E+00  0.00000000E+00  0.00000000E+00
  0.00000000E+00  0.00000000E+00  0.00000000E+00
  0.00000000E+00  0.00000000E+00  0.00000000E+00
  0.00000000E+00  0.00000000E+00  0.00000000E+00
  0.00000000E+00  0.00000000E+00  0.00000000E+00
  0.00000000E+00  0.00000000E+00  0.00000000E+00
  0.00000000E+00  0.00000000E+00  0.00000000E+00
  0.00000000E+00  0.00000000E+00  0.00000000E+00
  0.00000000E+00  0.00000000E+00  0.00000000E+00
  0.00000000E+00  0.00000000E+00  0.00000000E+00
  0.00000000E+00  0.00000000E+00  0.00000000E+00
  0.00000000E+00  0.00000000E+00  0.00000000E+00
  0.00000000E+00  0.00000000E+00  0.00000000E+00
  0.00000000E+00  0.00000000E+00  0.00000000E+00
  0.00000000E+00  0.00000000E+00  0.00000000E+00
  0.00000000E+00  0.00000000E+00  0.00000000E+00
  0.00000000E+00  0.00000000E+00  0.00000000E+00
  0.00000000E+00  0.00000000E+00  0.00000000E+00
  0.00000000E+00  0.00000000E+00  0.00000000E+00
  0.00000000E+00  0.00000000E+00  0.00000000E+00
  0.00000000E+00  0.00000000E+00  0.00000000E+00
  0.00000000E+00  0.00000000E+00  0.00000000E+00
  0.00000000E+00  0.00000000E+00  0.00000000E+00
  0.00000000E+00  0.00000000E+00  0.00000000E+00
  0.00000000E+00  0.00000000E+00  0.00000000E+00
  0.00000000E+00  0.00000000E+00  0.00000000E+00
  0.00000000E+00  0.00000000E+00  0.00000000E+00
  0.00000000E+00  0.00000000E+00  0.00000000E+00
  0.00000000E+00  0.00000000E+00  0.00000000E+00
  0.00000000E+00  0.00000000E+00  0.00000000E+00
  0.00000000E+00  0.00000000E+00  0.00000000E+00
  0.00000000E+00  0.00000000E+00  0.00000000E+00
  0.00000000E+00  0.00000000E+00  0.00000000E+00
  0.00000000E+00  0.00000000E+00  0.00000000E+00
  0.00000000E+00  0.00000000E+00  0.00000000E+00
  0.00000000E+00  0.00000000E+00  0.00000000E+00
  0.00000000E+00  0.00000000E+00  0.00000000E+00
  0.00000000E+00  0.00000000E+00  0.00000000E+00
  0.00000000E+00  0.00000000E+00  0.00000000E+00
  0.00000000E+00  0.00000000E+00  0.00000000E+00
  0.00000000E+00  0.00000000E+00  0.00000000E+00
  0.00000000E+00  0.00000000E+00  0.00000000E+00
  0.00000000E+00  0.00000000E+00  0.00000000E+00
  0.00000000E+00  0.00000000E+00  0.00000000E+00
  0.00000000E+00  0.00000000E+00  0.00000000E+00
  0.00000000E+00  0.00000000E+00  0.00000000E+00
  0.00000000E+00  0.00000000E+00  0.00000000E+00
  0.00000000E+00  0.00000000E+00  0.00000000E+00
  0.00000000E+00  0.00000000E+00  0.00000000E+00
  0.00000000E+00  0.00000000E+00  0.00000000E+00
  0.00000000E+00  0.00000000E+00  0.00000000E+00
  0.00000000E+00  0.00000000E+00  0.00000000E+00
  0.00000000E+00  0.00000000E+00  0.00000000E+00
  0.00000000E+00  0.00000000E+00  0.00000000E+00
  0.00000000E+00  0.00000000E+00  0.00000000E+00
  0.00000000E+00  0.00000000E+00  0.00000000E+00
  0.00000000E+00  0.00000000E+00  0.00000000E+00
  0.00000000E+00  0.00000000E+00  0.00000000E+00
  0.00000000E+00  0.00000000E+00  0.00000000E+00
  0.00000000E+00  0.00000000E+00  0.00000000E+00
  0.00000000E+00  0.00000000E+00  0.00000000E+00
  0.00000000E+00  0.00000000E+00  0.00000000E+00
  0.00000000E+00  0.00000000E+00  0.00000000E+00
  0.00000000E+00  0.00000000E+00  0.00000000E+00
  0.00000000E+00  0.00000000E+00  0.00000000E+00
  0.00000000E+00  0.00000000E+00  0.00000000E+00
  0.00000000E+00  0.00000000E+00  0.00000000E+00
  0.00000000E+00  0.00000000E+00  0.00000000E+00
  0.00000000E+00  0.00000000E+00  0.00000000E+00
  0.00000000E+00  0.00000000E+00  0.00000000E+00
  0.00000000E+00  0.00000000E+00  0.00000000E+00
  0.00000000E+00  0.00000000E+00  0.00000000E+00
  0.00000000E+00  0.00000000E+00  0.00000000E+00
  0.00000000E+00  0.00000000E+00  0.00000000E+00
  0.00000000E+00  0.00000000E+00  0.00000000E+00
  0.00000000E+00  0.00000000E+00  0.00000000E+00
  0.00000000E+00  0.00000000E+00  0.00000000E+00
  0.00000000E+00  0.00000000E+00  0.00000000E+00
  0.00000000E+00  0.00000000E+00  0.00000000E+00
  0.00000000E+00  0.00000000E+00  0.00000000E+00
  0.00000000E+00  0.00000000E+00  0.00000000E+00
  0.00000000E+00  0.00000000E+00  0.00000000E+00
  0.00000000E+00  0.00000000E+00  0.00000000E+00
  0.00000000E+00  0.00000000E+00  0.00000000E+00
  0.00000000E+00  0.00000000E+00  0.00000000E+00
  0.00000000E+00  0.00000000E+00  0.00000000E+00
  0.00000000E+00  0.00000000E+00  0.00000000E+00
  0.00000000E+00  0.00000000E+00  0.00000000E+00
  0.00000000E+00  0.00000000E+00  0.00000000E+00
  0.00000000E+00  0.00000000E+00  0.00000000E+00
  0.00000000E+00  0.00000000E+00  0.00000000E+00
  0.00000000E+00  0.00000000E+00  0.00000000E+00
  0.00000000E+00  0.00000000E+00  0.00000000E+00
  0.00000000E+00  0.00000000E+00  0.00000000E+00
  0.00000000E+00  0.00000000E+00  0.00000000E+00
  0.00000000E+00  0.00000000E+00  0.00000000E+00
  0.00000000E+00  0.00000000E+00  0.00000000E+00
  0.00000000E+00  0.00000000E+00  0.00000000E+00
  0.00000000E+00  0.00000000E+00  0.00000000E+00
  0.00000000E+00  0.00000000E+00  0.00000000E+00
  0.00000000E+00  0.00000000E+00  0.00000000E+00
  0.00000000E+00  0.00000000E+00  0.00000000E+00
  0.00000000E+00  0.00000000E+00  0.00000000E+00
  0.00000000E+00  0.00000000E+00  0.00000000E+00
  0.00000000E+00  0.00000000E+00  0.00000000E+00
  0.00000000E+00  0.00000000E+00  0.00000000E+00
  0.00000000E+00  0.00000000E+00  0.00000000E+00
  0.00000000E+00  0.00000000E+00  0.00000000E+00
  0.00000000E+00  0.00000000E+00  0.00000000E+00
  0.00000000E+00  0.00000000E+00  0.00000000E+00
  0.00000000E+00  0.00000000E+00  0.00000000E+00
  0.00000000E+00  0.00000000E+00  0.00000000E+00
  0.00000000E+00  0.00000000E+00  0.00000000E+00
  0.00000000E+00  0.00000000E+00  0.00000000E+00
  0.00000000E+00  0.00000000E+00  0.00000000E+00
  0.00000000E+00  0.00000000E+00  0.00000000E+00
  0.00000000E+00  0.00000000E+00  0.00000000E+00
  0.00000000E+00  0.00000000E+00  0.00000000E+00
  0.00000000E+00  0.00000000E+00  0.00000000E+00
  0.00000000E+00  0.00000000E+00  0.00000000E+00
  0.00000000E+00  0.00000000E+00  0.00000000E+00
  0.00000000E+00  0.00000000E+00  0.00000000E+00
  0.00000000E+00  0.00000000E+00  0.00000000E+00
  0.00000000E+00  0.00000000E+00  0.00000000E+00
  0.00000000E+00  0.00000000E+00  0.00000000E+00
  0.00000000E+00  0.00000000E+00  0.00000000E+00
  0.00000000E+00  0.00000000E+00  0.00000000E+00
  0.00000000E+00  0.00000000E+00  0.00000000E+00
  0.00000000E+00  0.00000000E+00  0.00000000E+00
  0.00000000E+00  0.00000000E+00  0.00000000E+00
  0.00000000E+00  0.00000000E+00  0.00000000E+00
  0.00000000E+00  0.00000000E+00  0.00000000E+00
  0.00000000E+00  0.00000000E+00  0.00000000E+00
  0.00000000E+00  0.00000000E+00  0.00000000E+00
  0.00000000E+00  0.00000000E+00  0.00000000E+00
  0.00000000E+00  0.00000000E+00  0.00000000E+00
  0.00000000E+00  0.00000000E+00  0.00000000E+00
  0.00000000E+00  0.00000000E+00  0.00000000E+00
  0.00000000E+00  0.00000000E+00  0.00000000E+00
  0.00000000E+00  0.00000000E+00  0.00000000E+00
  0.00000000E+00  0.00000000E+00  0.00000000E+00
  0.00000000E+00  0.00000000E+00  0.00000000E+00
  0.00000000E+00  0.00000000E+00  0.00000000E+00
  0.00000000E+00  0.00000000E+00  0.00000000E+00
  0.00000000E+00  0.00000000E+00  0.00000000E+00
  0.00000000E+00  0.00000000E+00  0.00000000E+00
  0.00000000E+00  0.00000000E+00  0.00000000E+00
  0.00000000E+00  0.00000000E+00  0.00000000E+00
  0.00000000E+00  0.00000000E+00  0.00000000E+00
  0.00000000E+00  0.00000000E+00  0.00000000E+00
  0.00000000E+00  0.00000000E+00  0.00000000E+00
  0.00000000E+00  0.00000000E+00  0.00000000E+00
  0.00000000E+00  0.00000000E+00  0.00000000E+00
  0.00000000E+00  0.00000000E+00  0.00000000E+00
  0.00000000E+00  0.00000000E+00  0.00000000E+00
  0.00000000E+00  0.00000000E+00  0.00000000E+00
  0.00000000E+00  0.00000000E+00  0.00000000E+00
  0.00000000E+00  0.00000000E+00  0.00000000E+00
  0.00000000E+00  0.00000000E+00  0.00000000E+00
  0.00000000E+00  0.00000000E+00  0.00000000E+00
  0.00000000E+00  0.00000000E+00  0.00000000E+00
  0.00000000E+00  0.00000000E+00  0.00000000E+00
  0.00000000E+00  0.00000000E+00  0.00000000E+00
  0.00000000E+00  0.00000000E+00  0.00000000E+00
  0.00000000E+00  0.00000000E+00  0.00000000E+00
  0.00000000E+00  0.00000000E+00  0.00000000E+00
  0.00000000E+00  0.00000000E+00  0.00000000E+00
  0.00000000E+00  0.00000000E+00  0.00000000E+00
  0.00000000E+00  0.00000000E+00  0.00000000E+00
  0.00000000E+00  0.00000000E+00  0.00000000E+00
  0.00000000E+00  0.00000000E+00  0.00000000E+00
  0.00000000E+00  0.00000000E+00  0.00000000E+00
  0.00000000E+00  0.00000000E+00  0.00000000E+00
  0.00000000E+00  0.00000000E+00  0.00000000E+00
  0.00000000E+00  0.00000000E+00  0.00000000E+00
  0.00000000E+00  0.00000000E+00  0.00000000E+00
  0.00000000E+00  0.00000000E+00  0.00000000E+00
  0.00000000E+00  0.00000000E+00  0.00000000E+00
  0.00000000E+00  0.00000000E+00  0.00000000E+00
  0.00000000E+00  0.00000000E+00  0.00000000E+00
  0.00000000E+00  0.00000000E+00  0.00000000E+00
  0.00000000E+00  0.00000000E+00  0.00000000E+00
  0.00000000E+00  0.00000000E+00  0.00000000E+00
  0.00000000E+00  0.00000000E+00  0.00000000E+00
  0.00000000E+00  0.00000000E+00  0.00000000E+00
  0.00000000E+00  0.00000000E+00  0.00000000E+00
  0.00000000E+00  0.00000000E+00  0.00000000E+00
  0.00000000E+00  0.00000000E+00  0.00000000E+00
  0.00000000E+00  0.00000000E+00  0.00000000E+00
  0.00000000E+00  0.00000000E+00  0.00000000E+00
  0.00000000E+00  0.00000000E+00  0.00000000E+00
  0.00000000E+00  0.00000000E+00  0.00000000E+00
  0.00000000E+00  0.00000000E+00  0.00000000E+00
  0.00000000E+00  0.00000000E+00  0.00000000E+00
  0.00000000E+00  0.00000000E+00  0.00000000E+00
  0.00000000E+00  0.00000000E+00  0.00000000E+00
  0.00000000E+00  0.00000000E+00  0.00000000E+00
  0.00000000E+00  0.00000000E+00  0.00000000E+00
  0.00000000E+00  0.00000000E+00  0.00000000E+00
  0.00000000E+00  0.00000000E+00  0.00000000E+00
  0.00000000E+00  0.00000000E+00  0.00000000E+00
  0.00000000E+00  0.00000000E+00  0.00000000E+00
  0.00000000E+00  0.00000000E+00  0.00000000E+00
  0.00000000E+00  0.00000000E+00  0.00000000E+00
  0.00000000E+00  0.00000000E+00  0.00000000E+00
  0.00000000E+00  0.00000000E+00  0.00000000E+00
  0.00000000E+00  0.00000000E+00  0.00000000E+00
  0.00000000E+00  0.00000000E+00  0.00000000E+00
  0.00000000E+00  0.00000000E+00  0.00000000E+00
  0.00000000E+00  0.00000000E+00  0.00000000E+00
  0.00000000E+00  0.00000000E+00  0.00000000E+00
  0.00000000E+00  0.00000000E+00  0.00000000E+00
  0.00000000E+00  0.00000000E+00  0.00000000E+00
  0.00000000E+00  0.00000000E+00  0.00000000E+00
  0.00000000E+00  0.00000000E+00  0.00000000E+00
  0.00000000E+00  0.00000000E+00  0.00000000E+00
  0.00000000E+00  0.00000000E+00  0.00000000E+00
  0.00000000E+00  0.00000000E+00  0.00000000E+00
  0.00000000E+00  0.00000000E+00  0.00000000E+00
  0.00000000E+00  0.00000000E+00  0.00000000E+00
  0.00000000E+00  0.00000000E+00  0.00000000E+00
  0.00000000E+00  0.00000000E+00  0.00000000E+00
  0.00000000E+00  0.00000000E+00  0.00000000E+00
  0.00000000E+00  0.00000000E+00  0.00000000E+00