New structure                           
   1.00000000000000     
    11.0886518914727521    0.0002158876830376   -0.0000025036232006
    -5.5441389815685369    9.6031621755481762   -0.0000025036232007
    -0.0000153316976652   -0.0000265552793228   62.3949024663000813
 273   6   9
Direct
  0.9999581725205431  0.1652292679145333  0.9994256879426899
  0.1652289409145311  0.9999581725205431  0.9994256879426899
  0.0000154893491029  0.6683123504092094  0.9986785419947921
  0.1650864038132553  0.5021925928650290  0.9992299532200661
  0.3316564812537521  0.3316561242537546  0.9986765574874497
  0.5021925928650290  0.1650867308132575  0.9992299532200661
  0.6683120524092132  0.0000154893491029  0.9986785419947921
  0.3370874513807820  0.8348904173640150  0.9992379216763183
  0.4977856483336467  0.6628858198424084  0.9992318797231263
  0.6628855218424121  0.4977856483336467  0.9992318797231263
  0.8348904173640150  0.3370874513807820  0.9992379216763183
  0.8347310883909955  0.8347310883909955  0.9994198342278509
  0.9999723008403762  0.5012144956242537  0.0417169772826114
  0.1734193708604508  0.3417457957862169  0.0397547464267660
  0.3417461527862145  0.1734193708604508  0.0397547464267660
  0.5012144956242537  0.9999723008403762  0.0417169772826114
  0.1683000644094648  0.8265455545504850  0.0397621816364762
  0.3333309154499418  0.6666691733156540  0.0413539497194861
  0.4988132303099064  0.4988132303099064  0.0417040375142435
  0.6666688753156578  0.3333305584499442  0.0413539497194861
  0.8265458525504812  0.1683003914094670  0.0397621816364762
  0.6582483729116859  0.8316945751231231  0.0397451088928094
  0.8316948731231193  0.6582486709116822  0.0397451088928094
  0.1658465516078422  0.5122816463040110  0.0830492992672589
  0.5122816463040110  0.1658468786078444  0.0830492992672589
  0.3464525693352485  0.8341899903837415  0.0830520460883619
  0.4877128400860968  0.6535071979643092  0.0830459225500348
  0.6535068999643130  0.4877128400860968  0.0830459225500348
  0.8341899903837415  0.3464525693352485  0.0830520460883619
  0.1659610582696587  0.6531712030847885  0.1258480737099745
  0.3469203234097620  0.5128485833098892  0.1258527596364587
  0.5128485833098892  0.3469199664097644  0.1258527596364587
  0.6531709050847923  0.1659613852696609  0.1258480737099745
  0.4872343648443902  0.8340683923868113  0.1258529167932210
  0.8340686903868075  0.4872343648443902  0.1258529167932210
  0.0000372944601139  0.4996314413410232  0.1672718900070365
  0.1676977466136833  0.3413590535342692  0.1690951446925908
  0.3413594105342668  0.1676977466136833  0.1690951446925908
  0.4996314413410232  0.0000372944601139  0.1672718900070365
  0.1736788513574226  0.8323423305276663  0.1690700259432631
  0.3333428393876474  0.6667073496089770  0.1676690785912811
  0.5003821930791901  0.5003821930791901  0.1672746709358464
  0.6667070516089808  0.3333424823876499  0.1676690785912811
  0.8323426285276625  0.1736791783574176  0.1690700259432631
  0.6587235362864163  0.8264198817454300  0.1690834978843441
  0.8264201797454263  0.6587238342864126  0.1690834978843441
  0.9999966437875187  0.3322005299199375  0.2099714938263730
  0.1643125610014877  0.1643128880014899  0.2088392981441629
  0.3322008869199351  0.9999966437875187  0.2099714938263730
  0.0000094820227048  0.8357225945470930  0.2088365664675109
  0.1656676369587657  0.6636957084888095  0.2095457810569172
  0.3363378070435985  0.5019490742437540  0.2095553895239277
  0.5019490742437540  0.3363374500436009  0.2095553895239277
  0.6636954104888133  0.1656679639587679  0.2095457810569172
  0.8357228925470892  0.0000094820227048  0.2088365664675109
  0.4980756465224374  0.8344147727793327  0.2095501216930344
  0.6678653454696502  0.6678656434696464  0.2099702920696629
  0.8344150707793290  0.4980756465224374  0.2095501216930344
  0.9999954108851554  0.9999954108851554  0.2509460794002223
  0.0000070441072992  0.4996271812897746  0.2510889231460212
  0.1669541197808329  0.3324353427375613  0.2508391785934734
  0.3324356997375588  0.1669541197808329  0.2508391785934734
  0.4996271812897746  0.0000070441072992  0.2510889231460212
  0.1655052308588623  0.8330732963287204  0.2508099095040421
  0.3333470692013236  0.6667051089050275  0.2506788384991410
  0.5003951699961959  0.5003951699961959  0.2510737626950572
  0.6667048109050313  0.3333467122013261  0.2506788384991410
  0.8330735943287166  0.1655055578588644  0.2508099095040421
  0.6676197538809703  0.8345386341092080  0.2508350665877970
  0.8345389321092043  0.6676200518809665  0.2508350665877970
  0.9999502630546502  0.3325479679310703  0.2922724867643751
  0.1666824034187186  0.1666827304187208  0.2923229518764785
  0.3325483249310679  0.9999502630546502  0.2922724867643751
  0.0000582010216448  0.8334262252755522  0.2923069654571009
  0.1665041990915554  0.6665170986249720  0.2921661472408061
  0.3334850185122065  0.5000479170209644  0.2921664953477290
  0.5000479170209644  0.3334846615122089  0.2921664953477290
  0.6665168006249758  0.1665045260915576  0.2921661472408061
  0.8334265232755484  0.0000582010216448  0.2923069654571009
  0.4999626568568303  0.8334243608330993  0.2921781489915247
  0.6675172135396465  0.6675175115396428  0.2922659437220076
  0.8334246588330956  0.4999626568568303  0.2921781489915247
  0.0000146756339277  0.0000146756339277  0.3336903393198796
  0.0000274549851866  0.4997594134506329  0.3336182300891011
  0.1668473238862092  0.3334556073682720  0.3335854198043506
  0.3334559643682695  0.1668473238862092  0.3335854198043506
  0.4997594134506329  0.0000274549851866  0.3336182300891011
  0.1666661879612050  0.8332081772257141  0.3336158923251347
  0.3333790626528881  0.6666845620007606  0.3335322049077618
  0.5002615306801701  0.5002615306801701  0.3335053691285950
  0.6666842640007644  0.3333787056528905  0.3335322049077618
  0.8332084752257103  0.1666665149612072  0.3336158923251347
  0.6665196848458947  0.8333188834710370  0.3335812196937766
  0.8333191814710332  0.6665199828458910  0.3335812196937766
  0.1664519682057204  0.6666376615292648  0.3750134821186251
  0.3333761521163368  0.4999058386827429  0.3749128400360107
  0.4999058386827429  0.3333757951163392  0.3749128400360107
  0.6666373635292686  0.1664522952057226  0.3750134821186251
  0.5000974958197659  0.8334087722974743  0.3749858613014112
  0.8334090702974706  0.5000974958197659  0.3749858613014112
  0.9999170849473984  0.3332820558774543  0.3750677210459159
  0.3332824128774519  0.9999170849473984  0.3750677210459159
  0.6667250135446992  0.6667253115446954  0.3749557296452011
  0.1666456846132078  0.1666460116132100  0.3750590966442431
  0.0000944882010714  0.8335097221294561  0.3750812386070947
  0.8335100201294523  0.0000944882010714  0.3750812386070947
  0.0001763749765757  0.0001763749765757  0.4165790885033331
  0.9998443047854977  0.4999981541424461  0.4165937139208253
  0.1665930921234775  0.3333601653183038  0.4165254641896681
  0.3333605223183014  0.1665930921234775  0.4165254641896681
  0.4999981541424461  0.9998443047854977  0.4165937139208253
  0.1666348742550525  0.8333281499660430  0.4165261750836464
  0.3331839144702968  0.6665994873593633  0.4164779749619569
  0.4999725523726539  0.4999725523726539  0.4163159900555300
  0.6665991893593670  0.3331835574702993  0.4164779749619569
  0.8333284479660392  0.1666352012550547  0.4165261750836464
  0.6668571486172254  0.8334675835938086  0.4165210046283363
  0.8334678815938048  0.6668574466172217  0.4165210046283363
  0.1663078781371041  0.6662392907171011  0.4581920576099421
  0.3334942625532378  0.4999229168385142  0.4579216309524199
  0.4999229168385142  0.3334939055532402  0.4579216309524199
  0.6662389927171048  0.1663082051371063  0.4581920576099421
  0.5000225201855883  0.8326560884705287  0.4581074646872665
  0.8326563864705250  0.5000225201855883  0.4581074646872665
  0.0000969451621771  0.3337242792010642  0.4581989899653749
  0.3337246362010617  0.0000969451621771  0.4581989899653749
  0.6664900545355721  0.6664903525355683  0.4579272447738560
  0.1673570161204907  0.1673573431204929  0.4580895377338550
  0.9999055699288633  0.8336848397924896  0.4581680401451322
  0.8336851377924859  0.9999055699288633  0.4581680401451322
  0.9986674833816735  0.4999590215100511  0.4997606691710033
  0.4999590215100511  0.9986674833816735  0.4997606691710033
  0.3327776369691335  0.6666029280451440  0.4997698912985555
  0.6666026300451477  0.3327772799691360  0.4997698912985555
  0.6672603223614075  0.8338606964387694  0.4997648926206182
  0.8338609944387656  0.6672606203614038  0.4997648926206182
  0.4999977484462619  0.4999977484462619  0.4993894597944788
  0.8333556637019086  0.1666141139818507  0.4996628870246909
  0.1666137869818485  0.8333553657019124  0.4996628870246909
  0.1661854510104561  0.3333150561336851  0.4997651650508033
  0.3333154131336826  0.1661854510104561  0.4997651650508033
  0.0013263311292917  0.0013263311292917  0.4997214570009021
  0.1624286106021842  0.6660936076432122  0.5413712943252094
  0.3304365055817016  0.4999493289519208  0.5408320313895985
  0.4999493289519208  0.3304361485817040  0.5408320313895985
  0.6660933096432160  0.1624289376021864  0.5413712943252094
  0.4999686318834904  0.8273719769427998  0.5419073563867443
  0.8273722749427961  0.4999686318834904  0.5419073563867443
  0.9963544262405293  0.3338295845122516  0.5413888210460485
  0.3338299415122492  0.9963544262405293  0.5413888210460485
  0.6695849068049924  0.6695852048049886  0.5408410224151226
  0.1724486670990188  0.1724489940990210  0.5418808953947263
  0.0035974166073558  0.8375844147116638  0.5413502189662225
  0.8375847127116600  0.0035974166073558  0.5413502189662225
  0.9971716079874824  0.4998931457499580  0.5833383482995771
  0.1619402421645546  0.3346686335624085  0.5833316307373124
  0.3346689905624061  0.1619402421645546  0.5833316307373124
  0.4998931457499580  0.9971716079874824  0.5833383482995771
  0.1665450714010674  0.8333766247618684  0.5833302235257136
  0.3270566945951145  0.6651238532043209  0.5833363912006320
  0.0027667148049133  0.0027667148049133  0.5833274701999542
  0.6651235552043246  0.3270563375951170  0.5833363912006320
  0.8333769227618646  0.1665453984010696  0.5833302235257136
  0.6729970008888273  0.8381223031894081  0.5833329612034817
  0.8381226011894043  0.6729972988888235  0.5833329612034817
  0.1624849399981585  0.6661200407174874  0.6252788916852339
  0.3305247516637735  0.4999336027946342  0.6257829642160004
  0.4999336027946342  0.3305243946637759  0.6257829642160004
  0.6661197427174912  0.1624852669981607  0.6252788916852339
  0.4999946429724886  0.8274022193650197  0.6247452956684825
  0.8274025173650159  0.4999946429724886  0.6247452956684825
  0.1723700158457362  0.1723703428457384  0.6247619383977536
  0.0035699435201479  0.8376033405098724  0.6252898309803427
  0.8376036385098686  0.0035699435201479  0.6252898309803427
  0.9964118559231494  0.3337817856348195  0.6252972923362705
  0.3337821426348171  0.9964118559231494  0.6252972923362705
  0.6694859370517463  0.6694862350517425  0.6257942581119238
  0.0013030507949452  0.0013030507949452  0.6668951569123820
  0.9986513136718713  0.4999135886924648  0.6668801340206372
  0.1662152165078865  0.3333181235832683  0.6668585676964938
  0.3333184805832659  0.1662152165078865  0.6668585676964938
  0.4999135886924648  0.9986513136718713  0.6668801340206372
  0.1666135618692834  0.8333683079554532  0.6669666354253962
  0.3328306609043850  0.6666094917493908  0.6668473460400435
  0.5000996800236166  0.5000996800236166  0.6672231421109913
  0.6666091937493945  0.3328303039043874  0.6668473460400435
  0.8333686059554495  0.1666138888692856  0.6669666354253962
  0.6672540617370259  0.8338034346141185  0.6668591919028870
  0.8338037326141148  0.6672543597370222  0.6668591919028870
  0.0001279894043407  0.3337238615803528  0.7084153780970013
  0.1673881454214126  0.1673884724214147  0.7085200489027486
  0.3337242185803504  0.0001279894043407  0.7084153780970013
  0.9998600771765354  0.8336441895833246  0.7084401665076925
  0.1663731259315853  0.6662097978120798  0.7084002184200315
  0.3336200484756731  0.5000519412507174  0.7086599385519108
  0.5000519412507174  0.3336196914756755  0.7086599385519108
  0.6662094998120835  0.1663734529315875  0.7084002184200315
  0.8336444875833209  0.9998600771765354  0.7084401665076925
  0.4999509410955341  0.8325727966693961  0.7084849972688474
  0.6664884544081957  0.6664887524081919  0.7086671237217601
  0.8325730946693923  0.4999509410955341  0.7084849972688474
  0.0001725882790993  0.0001725882790993  0.7500401454602468
  0.9998273213084801  0.5000055816597495  0.7499866837049112
  0.1666652651872127  0.3334204607401503  0.7500717503678516
  0.3334208177401479  0.1666652651872127  0.7500717503678516
  0.5000055816597495  0.9998273213084801  0.7499866837049112
  0.1666163095804194  0.8332954605765224  0.7500686890358779
  0.3332091631603191  0.6665699731175465  0.7500820370434340
  0.5000405487798005  0.5000405487798005  0.7502513964946758
  0.6665696751175503  0.3332088061603216  0.7500820370434340
  0.8332957585765186  0.1666166365804216  0.7500686890358779
  0.6668085579173280  0.8333954483065398  0.7500682611088223
  0.8333957463065360  0.6668088559173242  0.7500682611088223
  0.9999665529038708  0.3334276074629798  0.7915605947507416
  0.1668407865202255  0.1668411135202277  0.7915648260883614
  0.3334279644629774  0.9999665529038708  0.7915605947507416
  0.0000547496988972  0.8332977534698074  0.7915417743372259
  0.1665778092336865  0.6665651158747465  0.7915606497995782
  0.3334748677647426  0.5000869624084103  0.7916596940195504
  0.5000869624084103  0.3334745107647450  0.7916596940195504
  0.6665648178747503  0.1665781362336887  0.7915606497995782
  0.8332980514698036  0.0000547496988972  0.7915417743372259
  0.4999269975576084  0.8332994609810598  0.7915834253464240
  0.6665414246321717  0.6665417226321679  0.7916580163846092
  0.8332997589810560  0.4999269975576084  0.7915834253464240
  0.9999990767072831  0.9999990767072831  0.8329680938790816
  0.0000210637695517  0.5000905994015383  0.8330041242207074
  0.1667660205547392  0.3335486985624172  0.8330201905625501
  0.3335490555624148  0.1667660205547392  0.8330201905625501
  0.5000905994015383  0.0000210637695517  0.8330041242207074
  0.1668308863896542  0.8332668029244559  0.8329878336668983
  0.3333757231202057  0.6666800446059398  0.8331076422691552
  0.4998894690972762  0.4998894690972762  0.8331186948104730
  0.6666797466059435  0.3333753661202081  0.8331076422691552
  0.8332671009244521  0.1668312133896563  0.8329878336668983
  0.6663946275638963  0.8331282568551259  0.8330194634715795
  0.8331285548551222  0.6663949255638926  0.8330194634715795
  0.9999370431784769  0.3334783835072770  0.8744078437079139
  0.1668446939585735  0.1668450209585757  0.8742980119026953
  0.3334787405072746  0.9999370431784769  0.8744078437079139
  0.0000598537122016  0.8332354181356720  0.8743044543124725
  0.1665990893977778  0.6666059358988079  0.8745196372691240
  0.3333747102433620  0.5000584560261601  0.8745247563531464
  0.5000584560261601  0.3333743532433644  0.8745247563531464
  0.6666056378988117  0.1665994163977800  0.8745196372691240
  0.8332357161356683  0.0000598537122016  0.8743044543124725
  0.4999171052379836  0.8333153170492125  0.8745052831203282
  0.6665077278060281  0.6665080258060243  0.8744151574187384
  0.8333156150492087  0.4999171052379836  0.8745052831203282
  0.9999935142166620  0.9999935142166620  0.9154580951571702
  0.0000235945472724  0.5004441059193212  0.9158850267469774
  0.1665614478773776  0.3335839902635627  0.9157415599216066
  0.3335843472635602  0.1665614478773776  0.9157415599216066
  0.5004441059193212  0.0000235945472724  0.9158850267469774
  0.1670373711294459  0.8333854422711298  0.9157688369590886
  0.3332935496701808  0.6666455616574325  0.9159044391930919
  0.4995450410243762  0.4995450410243762  0.9158957366153473
  0.6666452636574363  0.3332931926701832  0.9159044391930919
  0.8333857402711260  0.1670376981294481  0.9157688369590886
  0.6664064056973800  0.8330030725012847  0.9157390690405123
  0.8330033705012809  0.6664067036973762  0.9157390690405123
  0.9999713442794231  0.3338031059928426  0.9575407632485877
  0.1660451813874815  0.1660455083874837  0.9570740250046441
  0.3338034629928401  0.9999713442794231  0.9575407632485877
  0.0000133557897968  0.8339140624872314  0.9570745192749897
  0.1672973374263549  0.6680222399678186  0.9574145497170790
  0.3319351990055139  0.4992385291751020  0.9574100829960202
  0.4992385291751020  0.3319348420055164  0.9574100829960202
  0.6680219419678224  0.1672976644263571  0.9574145497170790
  0.8339143604872277  0.0000133557897968  0.9570745192749897
  0.5007012409981186  0.8327233772277296  0.9574097545988138
  0.6661804563135689  0.6661807543135652  0.9575354056589660
  0.8327236752277258  0.5007012409981186  0.9574097545988138
  0.0000227291197206  0.2304272538511540  0.0744283735302034
  0.2304269268511518  0.0000227291197206  0.0744283735302034
  0.7696129895587234  0.7696129895587234  0.0744103484677012
  0.2316588372142405  0.2316591642142427  0.1343806542569723
  0.9999807172842594  0.7684337358794835  0.1343501171637840
  0.7684340338794797  0.9999807172842594  0.1343501171637840
  0.0000129468012275  0.0000129468012275  0.0484030640550159
  0.9999327016468769  0.7133979302545086  0.0865197276568708
  0.2864949723821013  0.2864946153821037  0.0865349265733784
  0.7133976322545124  0.9999327016468769  0.0865197276568708
  0.0001182166358262  0.2865337338087599  0.1223022053290066
  0.2865340908087575  0.0001182166358262  0.1223022053290066
  0.7136144790229153  0.7136147770229115  0.1222869509462541
  0.0000106671243998  0.0000106671243998  0.1596191606870434
  0.5000595715097447  0.5000595715097447  0.5832912385768338
 
  0.00000000E+00  0.00000000E+00  0.00000000E+00
  0.00000000E+00  0.00000000E+00  0.00000000E+00
  0.00000000E+00  0.00000000E+00  0.00000000E+00
  0.00000000E+00  0.00000000E+00  0.00000000E+00
  0.00000000E+00  0.00000000E+00  0.00000000E+00
  0.00000000E+00  0.00000000E+00  0.00000000E+00
  0.00000000E+00  0.00000000E+00  0.00000000E+00
  0.00000000E+00  0.00000000E+00  0.00000000E+00
  0.00000000E+00  0.00000000E+00  0.00000000E+00
  0.00000000E+00  0.00000000E+00  0.00000000E+00
  0.00000000E+00  0.00000000E+00  0.00000000E+00
  0.00000000E+00  0.00000000E+00  0.00000000E+00
  0.00000000E+00  0.00000000E+00  0.00000000E+00
  0.00000000E+00  0.00000000E+00  0.00000000E+00
  0.00000000E+00  0.00000000E+00  0.00000000E+00
  0.00000000E+00  0.00000000E+00  0.00000000E+00
  0.00000000E+00  0.00000000E+00  0.00000000E+00
  0.00000000E+00  0.00000000E+00  0.00000000E+00
  0.00000000E+00  0.00000000E+00  0.00000000E+00
  0.00000000E+00  0.00000000E+00  0.00000000E+00
  0.00000000E+00  0.00000000E+00  0.00000000E+00
  0.00000000E+00  0.00000000E+00  0.00000000E+00
  0.00000000E+00  0.00000000E+00  0.00000000E+00
  0.00000000E+00  0.00000000E+00  0.00000000E+00
  0.00000000E+00  0.00000000E+00  0.00000000E+00
  0.00000000E+00  0.00000000E+00  0.00000000E+00
  0.00000000E+00  0.00000000E+00  0.00000000E+00
  0.00000000E+00  0.00000000E+00  0.00000000E+00
  0.00000000E+00  0.00000000E+00  0.00000000E+00
  0.00000000E+00  0.00000000E+00  0.00000000E+00
  0.00000000E+00  0.00000000E+00  0.00000000E+00
  0.00000000E+00  0.00000000E+00  0.00000000E+00
  0.00000000E+00  0.00000000E+00  0.00000000E+00
  0.00000000E+00  0.00000000E+00  0.00000000E+00
  0.00000000E+00  0.00000000E+00  0.00000000E+00
  0.00000000E+00  0.00000000E+00  0.00000000E+00
  0.00000000E+00  0.00000000E+00  0.00000000E+00
  0.00000000E+00  0.00000000E+00  0.00000000E+00
  0.00000000E+00  0.00000000E+00  0.00000000E+00
  0.00000000E+00  0.00000000E+00  0.00000000E+00
  0.00000000E+00  0.00000000E+00  0.00000000E+00
  0.00000000E+00  0.00000000E+00  0.00000000E+00
  0.00000000E+00  0.00000000E+00  0.00000000E+00
  0.00000000E+00  0.00000000E+00  0.00000000E+00
  0.00000000E+00  0.00000000E+00  0.00000000E+00
  0.00000000E+00  0.00000000E+00  0.00000000E+00
  0.00000000E+00  0.00000000E+00  0.00000000E+00
  0.00000000E+00  0.00000000E+00  0.00000000E+00
  0.00000000E+00  0.00000000E+00  0.00000000E+00
  0.00000000E+00  0.00000000E+00  0.00000000E+00
  0.00000000E+00  0.00000000E+00  0.00000000E+00
  0.00000000E+00  0.00000000E+00  0.00000000E+00
  0.00000000E+00  0.00000000E+00  0.00000000E+00
  0.00000000E+00  0.00000000E+00  0.00000000E+00
  0.00000000E+00  0.00000000E+00  0.00000000E+00
  0.00000000E+00  0.00000000E+00  0.00000000E+00
  0.00000000E+00  0.00000000E+00  0.00000000E+00
  0.00000000E+00  0.00000000E+00  0.00000000E+00
  0.00000000E+00  0.00000000E+00  0.00000000E+00
  0.00000000E+00  0.00000000E+00  0.00000000E+00
  0.00000000E+00  0.00000000E+00  0.00000000E+00
  0.00000000E+00  0.00000000E+00  0.00000000E+00
  0.00000000E+00  0.00000000E+00  0.00000000E+00
  0.00000000E+00  0.00000000E+00  0.00000000E+00
  0.00000000E+00  0.00000000E+00  0.00000000E+00
  0.00000000E+00  0.00000000E+00  0.00000000E+00
  0.00000000E+00  0.00000000E+00  0.00000000E+00
  0.00000000E+00  0.00000000E+00  0.00000000E+00
  0.00000000E+00  0.00000000E+00  0.00000000E+00
  0.00000000E+00  0.00000000E+00  0.00000000E+00
  0.00000000E+00  0.00000000E+00  0.00000000E+00
  0.00000000E+00  0.00000000E+00  0.00000000E+00
  0.00000000E+00  0.00000000E+00  0.00000000E+00
  0.00000000E+00  0.00000000E+00  0.00000000E+00
  0.00000000E+00  0.00000000E+00  0.00000000E+00
  0.00000000E+00  0.00000000E+00  0.00000000E+00
  0.00000000E+00  0.00000000E+00  0.00000000E+00
  0.00000000E+00  0.00000000E+00  0.00000000E+00
  0.00000000E+00  0.00000000E+00  0.00000000E+00
  0.00000000E+00  0.00000000E+00  0.00000000E+00
  0.00000000E+00  0.00000000E+00  0.00000000E+00
  0.00000000E+00  0.00000000E+00  0.00000000E+00
  0.00000000E+00  0.00000000E+00  0.00000000E+00
  0.00000000E+00  0.00000000E+00  0.00000000E+00
  0.00000000E+00  0.00000000E+00  0.00000000E+00
  0.00000000E+00  0.00000000E+00  0.00000000E+00
  0.00000000E+00  0.00000000E+00  0.00000000E+00
  0.00000000E+00  0.00000000E+00  0.00000000E+00
  0.00000000E+00  0.00000000E+00  0.00000000E+00
  0.00000000E+00  0.00000000E+00  0.00000000E+00
  0.00000000E+00  0.00000000E+00  0.00000000E+00
  0.00000000E+00  0.00000000E+00  0.00000000E+00
  0.00000000E+00  0.00000000E+00  0.00000000E+00
  0.00000000E+00  0.00000000E+00  0.00000000E+00
  0.00000000E+00  0.00000000E+00  0.00000000E+00
  0.00000000E+00  0.00000000E+00  0.00000000E+00
  0.00000000E+00  0.00000000E+00  0.00000000E+00
  0.00000000E+00  0.00000000E+00  0.00000000E+00
  0.00000000E+00  0.00000000E+00  0.00000000E+00
  0.00000000E+00  0.00000000E+00  0.00000000E+00
  0.00000000E+00  0.00000000E+00  0.00000000E+00
  0.00000000E+00  0.00000000E+00  0.00000000E+00
  0.00000000E+00  0.00000000E+00  0.00000000E+00
  0.00000000E+00  0.00000000E+00  0.00000000E+00
  0.00000000E+00  0.00000000E+00  0.00000000E+00
  0.00000000E+00  0.00000000E+00  0.00000000E+00
  0.00000000E+00  0.00000000E+00  0.00000000E+00
  0.00000000E+00  0.00000000E+00  0.00000000E+00
  0.00000000E+00  0.00000000E+00  0.00000000E+00
  0.00000000E+00  0.00000000E+00  0.00000000E+00
  0.00000000E+00  0.00000000E+00  0.00000000E+00
  0.00000000E+00  0.00000000E+00  0.00000000E+00
  0.00000000E+00  0.00000000E+00  0.00000000E+00
  0.00000000E+00  0.00000000E+00  0.00000000E+00
  0.00000000E+00  0.00000000E+00  0.00000000E+00
  0.00000000E+00  0.00000000E+00  0.00000000E+00
  0.00000000E+00  0.00000000E+00  0.00000000E+00
  0.00000000E+00  0.00000000E+00  0.00000000E+00
  0.00000000E+00  0.00000000E+00  0.00000000E+00
  0.00000000E+00  0.00000000E+00  0.00000000E+00
  0.00000000E+00  0.00000000E+00  0.00000000E+00
  0.00000000E+00  0.00000000E+00  0.00000000E+00
  0.00000000E+00  0.00000000E+00  0.00000000E+00
  0.00000000E+00  0.00000000E+00  0.00000000E+00
  0.00000000E+00  0.00000000E+00  0.00000000E+00
  0.00000000E+00  0.00000000E+00  0.00000000E+00
  0.00000000E+00  0.00000000E+00  0.00000000E+00
  0.00000000E+00  0.00000000E+00  0.00000000E+00
  0.00000000E+00  0.00000000E+00  0.00000000E+00
  0.00000000E+00  0.00000000E+00  0.00000000E+00
  0.00000000E+00  0.00000000E+00  0.00000000E+00
  0.00000000E+00  0.00000000E+00  0.00000000E+00
  0.00000000E+00  0.00000000E+00  0.00000000E+00
  0.00000000E+00  0.00000000E+00  0.00000000E+00
  0.00000000E+00  0.00000000E+00  0.00000000E+00
  0.00000000E+00  0.00000000E+00  0.00000000E+00
  0.00000000E+00  0.00000000E+00  0.00000000E+00
  0.00000000E+00  0.00000000E+00  0.00000000E+00
  0.00000000E+00  0.00000000E+00  0.00000000E+00
  0.00000000E+00  0.00000000E+00  0.00000000E+00
  0.00000000E+00  0.00000000E+00  0.00000000E+00
  0.00000000E+00  0.00000000E+00  0.00000000E+00
  0.00000000E+00  0.00000000E+00  0.00000000E+00
  0.00000000E+00  0.00000000E+00  0.00000000E+00
  0.00000000E+00  0.00000000E+00  0.00000000E+00
  0.00000000E+00  0.00000000E+00  0.00000000E+00
  0.00000000E+00  0.00000000E+00  0.00000000E+00
  0.00000000E+00  0.00000000E+00  0.00000000E+00
  0.00000000E+00  0.00000000E+00  0.00000000E+00
  0.00000000E+00  0.00000000E+00  0.00000000E+00
  0.00000000E+00  0.00000000E+00  0.00000000E+00
  0.00000000E+00  0.00000000E+00  0.00000000E+00
  0.00000000E+00  0.00000000E+00  0.00000000E+00
  0.00000000E+00  0.00000000E+00  0.00000000E+00
  0.00000000E+00  0.00000000E+00  0.00000000E+00
  0.00000000E+00  0.00000000E+00  0.00000000E+00
  0.00000000E+00  0.00000000E+00  0.00000000E+00
  0.00000000E+00  0.00000000E+00  0.00000000E+00
  0.00000000E+00  0.00000000E+00  0.00000000E+00
  0.00000000E+00  0.00000000E+00  0.00000000E+00
  0.00000000E+00  0.00000000E+00  0.00000000E+00
  0.00000000E+00  0.00000000E+00  0.00000000E+00
  0.00000000E+00  0.00000000E+00  0.00000000E+00
  0.00000000E+00  0.00000000E+00  0.00000000E+00
  0.00000000E+00  0.00000000E+00  0.00000000E+00
  0.00000000E+00  0.00000000E+00  0.00000000E+00
  0.00000000E+00  0.00000000E+00  0.00000000E+00
  0.00000000E+00  0.00000000E+00  0.00000000E+00
  0.00000000E+00  0.00000000E+00  0.00000000E+00
  0.00000000E+00  0.00000000E+00  0.00000000E+00
  0.00000000E+00  0.00000000E+00  0.00000000E+00
  0.00000000E+00  0.00000000E+00  0.00000000E+00
  0.00000000E+00  0.00000000E+00  0.00000000E+00
  0.00000000E+00  0.00000000E+00  0.00000000E+00
  0.00000000E+00  0.00000000E+00  0.00000000E+00
  0.00000000E+00  0.00000000E+00  0.00000000E+00
  0.00000000E+00  0.00000000E+00  0.00000000E+00
  0.00000000E+00  0.00000000E+00  0.00000000E+00
  0.00000000E+00  0.00000000E+00  0.00000000E+00
  0.00000000E+00  0.00000000E+00  0.00000000E+00
  0.00000000E+00  0.00000000E+00  0.00000000E+00
  0.00000000E+00  0.00000000E+00  0.00000000E+00
  0.00000000E+00  0.00000000E+00  0.00000000E+00
  0.00000000E+00  0.00000000E+00  0.00000000E+00
  0.00000000E+00  0.00000000E+00  0.00000000E+00
  0.00000000E+00  0.00000000E+00  0.00000000E+00
  0.00000000E+00  0.00000000E+00  0.00000000E+00
  0.00000000E+00  0.00000000E+00  0.00000000E+00
  0.00000000E+00  0.00000000E+00  0.00000000E+00
  0.00000000E+00  0.00000000E+00  0.00000000E+00
  0.00000000E+00  0.00000000E+00  0.00000000E+00
  0.00000000E+00  0.00000000E+00  0.00000000E+00
  0.00000000E+00  0.00000000E+00  0.00000000E+00
  0.00000000E+00  0.00000000E+00  0.00000000E+00
  0.00000000E+00  0.00000000E+00  0.00000000E+00
  0.00000000E+00  0.00000000E+00  0.00000000E+00
  0.00000000E+00  0.00000000E+00  0.00000000E+00
  0.00000000E+00  0.00000000E+00  0.00000000E+00
  0.00000000E+00  0.00000000E+00  0.00000000E+00
  0.00000000E+00  0.00000000E+00  0.00000000E+00
  0.00000000E+00  0.00000000E+00  0.00000000E+00
  0.00000000E+00  0.00000000E+00  0.00000000E+00
  0.00000000E+00  0.00000000E+00  0.00000000E+00
  0.00000000E+00  0.00000000E+00  0.00000000E+00
  0.00000000E+00  0.00000000E+00  0.00000000E+00
  0.00000000E+00  0.00000000E+00  0.00000000E+00
  0.00000000E+00  0.00000000E+00  0.00000000E+00
  0.00000000E+00  0.00000000E+00  0.00000000E+00
  0.00000000E+00  0.00000000E+00  0.00000000E+00
  0.00000000E+00  0.00000000E+00  0.00000000E+00
  0.00000000E+00  0.00000000E+00  0.00000000E+00
  0.00000000E+00  0.00000000E+00  0.00000000E+00
  0.00000000E+00  0.00000000E+00  0.00000000E+00
  0.00000000E+00  0.00000000E+00  0.00000000E+00
  0.00000000E+00  0.00000000E+00  0.00000000E+00
  0.00000000E+00  0.00000000E+00  0.00000000E+00
  0.00000000E+00  0.00000000E+00  0.00000000E+00
  0.00000000E+00  0.00000000E+00  0.00000000E+00
  0.00000000E+00  0.00000000E+00  0.00000000E+00
  0.00000000E+00  0.00000000E+00  0.00000000E+00
  0.00000000E+00  0.00000000E+00  0.00000000E+00
  0.00000000E+00  0.00000000E+00  0.00000000E+00
  0.00000000E+00  0.00000000E+00  0.00000000E+00
  0.00000000E+00  0.00000000E+00  0.00000000E+00
  0.00000000E+00  0.00000000E+00  0.00000000E+00
  0.00000000E+00  0.00000000E+00  0.00000000E+00
  0.00000000E+00  0.00000000E+00  0.00000000E+00
  0.00000000E+00  0.00000000E+00  0.00000000E+00
  0.00000000E+00  0.00000000E+00  0.00000000E+00
  0.00000000E+00  0.00000000E+00  0.00000000E+00
  0.00000000E+00  0.00000000E+00  0.00000000E+00
  0.00000000E+00  0.00000000E+00  0.00000000E+00
  0.00000000E+00  0.00000000E+00  0.00000000E+00
  0.00000000E+00  0.00000000E+00  0.00000000E+00
  0.00000000E+00  0.00000000E+00  0.00000000E+00
  0.00000000E+00  0.00000000E+00  0.00000000E+00
  0.00000000E+00  0.00000000E+00  0.00000000E+00
  0.00000000E+00  0.00000000E+00  0.00000000E+00
  0.00000000E+00  0.00000000E+00  0.00000000E+00
  0.00000000E+00  0.00000000E+00  0.00000000E+00
  0.00000000E+00  0.00000000E+00  0.00000000E+00
  0.00000000E+00  0.00000000E+00  0.00000000E+00
  0.00000000E+00  0.00000000E+00  0.00000000E+00
  0.00000000E+00  0.00000000E+00  0.00000000E+00
  0.00000000E+00  0.00000000E+00  0.00000000E+00
  0.00000000E+00  0.00000000E+00  0.00000000E+00
  0.00000000E+00  0.00000000E+00  0.00000000E+00