New structure                           
   1.00000000000000     
    11.0848934112163864    0.0017328375075481   -0.0029673276862510
    -5.5409460243560469    9.6006657110788236   -0.0029673276862489
    -0.0166228831502985   -0.0287916781847642   62.4035975130067797
 273   6   9
Direct
  0.9999383748857298  0.1650523391097494  0.9993460362513531
  0.1650520121097472  0.9999383748857298  0.9993460362513531
  0.9996024734115991  0.6679511440849240  0.9985369541583324
  0.1652651766642137  0.5021959194903900  0.9990119249973830
  0.3319614355896974  0.3319610785896998  0.9984596446483209
  0.5021959194903900  0.1652655036642159  0.9990119249973830
  0.6679508460849277  0.9996024734115991  0.9985369541583324
  0.3366072468579873  0.8346910934780425  0.9990140670240351
  0.4980288141912297  0.6632700919228114  0.9991391556704912
  0.6632697939228152  0.4980288141912297  0.9991391556704912
  0.8346910934780425  0.3366072468579873  0.9990140670240351
  0.8348936423477653  0.8348936423477653  0.9995226431531634
  0.9998503272147659  0.5008906586061883  0.0414183774104941
  0.1733402775956279  0.3417533235932808  0.0394513786561035
  0.3417536805932784  0.1733402775956279  0.0394513786561035
  0.5008906586061883  0.9998503272147659  0.0414183774104941
  0.1681032623091028  0.8260384555101581  0.0394703606707409
  0.3336126267663602  0.6667035991036059  0.0410995320354672
  0.4983048911760903  0.4983048911760903  0.0415201850071583
  0.6667033011036096  0.3336122697663626  0.0410995320354672
  0.8260387535101543  0.1681035893091050  0.0394703606707409
  0.6583333280198715  0.8313134652521157  0.0397763391695776
  0.8313137632521119  0.6583336260198678  0.0397763391695776
  0.1667080588206673  0.5129129893941169  0.0826884579716207
  0.5129129893941169  0.1667083858206695  0.0826884579716207
  0.3480973615201748  0.8348390656204074  0.0827915522554292
  0.4889257091657555  0.6536575504953319  0.0828572069850395
  0.6536572524953357  0.4889257091657555  0.0828572069850395
  0.8348390656204074  0.3480973615201748  0.0827915522554292
  0.1667291450774897  0.6538679884993073  0.1254902069577923
  0.3463642770457156  0.5124457544406269  0.1253945355453325
  0.5124457544406269  0.3463639200457180  0.1253945355453325
  0.6538676904993110  0.1667294720774919  0.1254902069577923
  0.4882552451980047  0.8358154936032136  0.1257753767479102
  0.8358157916032098  0.4882552451980047  0.1257753767479102
  0.0052160720685350  0.5005328754903786  0.1669190022663045
  0.1644158164522622  0.3377373911142811  0.1687881903763611
  0.3377377481142787  0.1644158164522622  0.1687881903763611
  0.5005328754903786  0.0052160720685350  0.1669190022663045
  0.1773881092804714  0.8312638918434416  0.1685452667766469
  0.3383609461029877  0.6661272187800975  0.1679855599146336
  0.4972634132500531  0.4972634132500531  0.1662772209853500
  0.6661269207801013  0.3383605891029902  0.1679855599146336
  0.8312641898434379  0.1773884362804736  0.1685452667766469
  0.6597356581940090  0.8336157425969759  0.1683911371590270
  0.8336160405969721  0.6597359561940053  0.1683911371590270
  0.9987346989682493  0.3313822865006912  0.2099296277083269
  0.3313826435006888  0.9987346989682493  0.2099296277083269
  0.0022992356627611  0.8334823663976465  0.2087640378208988
  0.1667809369771263  0.6633040139575854  0.2095425575205212
  0.3276929094975216  0.4936817194509970  0.2098788250830168
  0.4936817194509970  0.3276925524975240  0.2098788250830168
  0.6633037159575892  0.1667812639771284  0.2095425575205212
  0.8334826643976427  0.0022992356627611  0.2087640378208988
  0.4989342924964504  0.8386814385738290  0.2095809743404544
  0.1613107376716343  0.1613110646716365  0.2089626704003749
  0.8386817365738253  0.4989342924964504  0.2095809743404544
  0.0034706157337823  0.4998506155045348  0.2513094170380015
  0.4998506155045348  0.0034706157337823  0.2513094170380015
  0.3388859507042881  0.6665600352641121  0.2505187749424280
  0.6665597372641159  0.3388855937042905  0.2505187749424280
  0.6671037906260011  0.8363914418113865  0.2515753986215401
  0.8363917398113827  0.6671040886259973  0.2515753986215401
  0.9937666538319689  0.9937666538319689  0.2507694646194807
  0.1622398706089498  0.3275907185678477  0.2513075910628402
  0.3275910755678453  0.1622398706089498  0.2513075910628402
  0.4963950452550421  0.4963950452550421  0.2518999536913711
  0.8321674628702738  0.1684022780868162  0.2511321427887410
  0.1684019510868140  0.8321671648702775  0.2511321427887410
  0.9996182573391721  0.3327015170914578  0.2926903038188797
  0.3327018740914554  0.9996182573391721  0.2926903038188797
  0.0004506023991198  0.8332939716448422  0.2926087743217067
  0.1674171723964051  0.6665027972863058  0.2924551133607807
  0.3324074826739221  0.4992841370039827  0.2925155357449825
  0.4992841370039827  0.3324071256739245  0.2925155357449825
  0.6665024992863096  0.1674174993964073  0.2924551133607807
  0.8332942696448384  0.0004506023991198  0.2926087743217067
  0.4997216314403659  0.8336955132268500  0.2924701962370975
  0.6669586742712994  0.6669589722712956  0.2928447607231845
  0.8336958112268462  0.4997216314403659  0.2924701962370975
  0.1651650820924644  0.1651654090924666  0.2926521118386063
  0.0003007927192726  0.5003123406042960  0.3338662444458720
  0.5003123406042960  0.0003007927192726  0.3338662444458720
  0.3338672018224074  0.6667448354547361  0.3339195909444825
  0.6667445374547398  0.3338668448224098  0.3339195909444825
  0.6665518273161766  0.8330971768955067  0.3340928478613918
  0.8330974748955029  0.6665521253161728  0.3340928478613918
  0.5003951446973147  0.5003951446973147  0.3340759294786579
  0.8329581313774810  0.1666532985551399  0.3339108816878991
  0.1666529715551377  0.8329578333774847  0.3339108816878991
  0.9994074679049518  0.9994074679049518  0.3340041710702693
  0.1668592937576889  0.3332252239303486  0.3339112556539092
  0.3332255809303462  0.1668592937576889  0.3339112556539092
  0.0000764085214158  0.3333467589810084  0.3754417635158731
  0.3333471159810060  0.0000764085214158  0.3754417635158731
  0.0000445487404264  0.8333254013307183  0.3754505999092146
  0.1668444048397930  0.6667527361733221  0.3753315783929096
  0.3333970831613939  0.4999390849889522  0.3753985436921567
  0.4999390849889522  0.3333967261613964  0.3753985436921567
  0.6667524381733259  0.1668447318397952  0.3753315783929096
  0.8333256993307145  0.0000445487404264  0.3754505999092146
  0.5002450175304318  0.8335497954155073  0.3753974445330002
  0.6667877805407159  0.6667880785407121  0.3755930279195923
  0.8335500934155036  0.5002450175304318  0.3753974445330002
  0.1665310469493235  0.1665313739493257  0.3753739402038221
  0.0001139910109345  0.5000929186132836  0.4168885955646999
  0.5000929186132836  0.0001139910109345  0.4168885955646999
  0.3334550491653232  0.6667472051662955  0.4168856822084948
  0.6667469071662993  0.3334546921653256  0.4168856822084948
  0.6667797175949843  0.8333737119732660  0.4169952693387415
  0.8333740099732623  0.6667800155949806  0.4169952693387415
  0.5001145002921064  0.5001145002921064  0.4169898696606822
  0.8334025101590541  0.1667526687342473  0.4169034132874359
  0.1667523417342451  0.8334022121590579  0.4169034132874359
  0.0000465877293436  0.0000465877293436  0.4168877437307685
  0.1667346120948139  0.3333684719857146  0.4168954832535618
  0.3333688289857122  0.1667346120948139  0.4168954832535618
  0.0000413173189102  0.3333516546660249  0.4584928465960374
  0.3333520116660225  0.0000413173189102  0.4584928465960374
  0.9999424337348799  0.8333452571025433  0.4584875221809881
  0.1666836220067793  0.6667061647685060  0.4584655257173296
  0.3334248275060006  0.5000625388517790  0.4585109233901932
  0.5000625388517790  0.3334244705060030  0.4585109233901932
  0.6667058667685097  0.1666839490067815  0.4584655257173296
  0.8333455551025395  0.9999424337348799  0.4584875221809881
  0.5000905588832225  0.8333212948236124  0.4585132731661474
  0.6667279911320065  0.6667282891320028  0.4585652772880806
  0.8333215928236086  0.5000905588832225  0.4585132731661474
  0.1666878400073557  0.1666881670073579  0.4584291758711032
  0.0000205458723954  0.4999762810851962  0.5001112411902753
  0.4999762810851962  0.0000205458723954  0.5001112411902753
  0.3334515182990998  0.6667128821039583  0.5000906182206890
  0.6667125841039621  0.3334511612991022  0.5000906182206890
  0.6667707187610574  0.8334617323314575  0.5000991884562325
  0.8334620303314537  0.6667710167610537  0.5000991884562325
  0.5000196139056499  0.5000196139056499  0.5001063504331427
  0.8334074581234958  0.1666815956824763  0.5001050721178402
  0.1666812686824741  0.8334071601234996  0.5001050721178402
  0.9999447779811845  0.9999447779811845  0.5000593769324695
  0.1666532529428579  0.3333125133003918  0.5000993891500443
  0.3333128703003894  0.1666532529428579  0.5000993891500443
  0.9999961773931929  0.3332777306316785  0.5417562868143264
  0.1665697853530048  0.1665701123530070  0.5416743479976489
  0.3332780876316761  0.9999961773931929  0.5417562868143264
  0.0000017837499016  0.8334219040989765  0.5416981577836353
  0.1666182304953594  0.6666456551454658  0.5417050415683491
  0.3332749049123436  0.4999502222243919  0.5417165945782472
  0.4999502222243919  0.3332745479123460  0.5417165945782472
  0.6666453571454696  0.1666185574953616  0.5417050415683491
  0.8334222020989728  0.0000017837499016  0.5416981577836353
  0.4999951714861126  0.8333336717264856  0.5417187647738544
  0.6666914662506258  0.6666917642506220  0.5417309817693265
  0.8333339697264819  0.4999951714861126  0.5417187647738544
  0.0000512514066244  0.0000512514066244  0.5833353762373790
  0.0000267272623375  0.4999635228219148  0.5833499196306136
  0.1666601556184091  0.3332543774618060  0.5833416522431776
  0.3332547344618035  0.1666601556184091  0.5833416522431776
  0.4999635228219148  0.0000267272623375  0.5833499196306136
  0.1665881631873063  0.8334260848051613  0.5833500471806019
  0.3333281927916119  0.6666767863516441  0.5833468526229808
  0.5000298729554302  0.5000298729554302  0.5833374066128059
  0.6666764883516478  0.3333278357916143  0.5833468526229808
  0.8334263828051576  0.1665884901873085  0.5833500471806019
  0.6668272693968404  0.8334837191107454  0.5833373114588980
  0.8334840171107416  0.6668275673968367  0.5833373114588980
  0.0000205655092529  0.3332494432849771  0.6249998872257976
  0.1665244006624249  0.1665247276624271  0.6249598832696321
  0.3332498002849746  0.0000205655092529  0.6249998872257976
  0.0000369749176130  0.8335183793736007  0.6249703631410668
  0.1666408599945228  0.6667020749967705  0.6249559712648036
  0.3332206656529735  0.4999183884914231  0.6249562508492019
  0.4999183884914231  0.3332203086529759  0.6249562508492019
  0.6667017769967742  0.1666411869945250  0.6249559712648036
  0.8335186773735970  0.0000369749176130  0.6249703631410668
  0.5000252882854355  0.8333479961340373  0.6249596811798099
  0.6667468921245145  0.6667471901245108  0.6249637238094152
  0.8333482941340336  0.5000252882854355  0.6249596811798099
  0.0000523614821830  0.0000523614821830  0.6665969863569572
  0.0000228540123643  0.4999515522897795  0.6665958720250345
  0.1666923552871395  0.3332950471874909  0.6665939577084785
  0.3332954041874885  0.1666923552871395  0.6665939577084785
  0.4999515522897795  0.0000228540123643  0.6665958720250345
  0.1665983509830156  0.8333930983612063  0.6665966422735252
  0.3333455020986307  0.6666798456511032  0.6665778072930166
  0.5001310899529443  0.5001310899529443  0.6665831513066536
  0.6666795476511140  0.3333451450986331  0.6665778072930166
  0.8333933963612026  0.1665986779830178  0.6665966422735252
  0.6667863246622403  0.8334255045939827  0.6665917552170129
  0.8334258025939789  0.6667866226622365  0.6665917552170129
  0.0000095304468886  0.3333251728275783  0.7082189701012780
  0.1666447779504736  0.1666451049504758  0.7082278564051521
  0.3333255298275759  0.0000095304468886  0.7082189701012780
  0.9999908662388393  0.8333480313898392  0.7082365085410203
  0.1666792802334598  0.6666351050554056  0.7081943216057951
  0.3333851489865651  0.5000699459488160  0.7081978553081285
  0.5000699459488160  0.3333847919865676  0.7081978553081285
  0.6666348070554093  0.1666796072334620  0.7081943216057951
  0.8333483293898354  0.9999908662388393  0.7082365085410203
  0.4999595275760811  0.8333233388830337  0.7081992448806460
  0.6666874409721970  0.6666877389721932  0.7082041108368244
  0.8333236368830299  0.4999595275760811  0.7081992448806460
  0.0000198407944012  0.0000198407944012  0.7498598902226234
  0.9999606113142434  0.4999631037065981  0.7498108373301946
  0.1667344742913741  0.3333802119483025  0.7498164654413699
  0.3333805689483000  0.1667344742913741  0.7498164654413699
  0.4999631037065981  0.9999606113142434  0.7498108373301946
  0.1666342753400372  0.8333360573378670  0.7498146661069640
  0.3333514659811243  0.6666819212510902  0.7498233106552874
  0.5000049576216128  0.5000049576216128  0.7498061069896735
  0.6666816232510939  0.3333511089811267  0.7498233106552874
  0.8333363553378632  0.1666346023400394  0.7498146661069640
  0.6666858363496786  0.8333826193821210  0.7498167212236666
  0.8333829173821172  0.6666861343496748  0.7498167212236666
  0.9999752484124542  0.3333401138213219  0.7913951713267480
  0.1667500983193833  0.1667504253193854  0.7913726683622997
  0.3333404708213195  0.9999752484124542  0.7913951713267480
  0.9999699484971032  0.8331948016400972  0.7913767697012233
  0.1666609700048909  0.6665900819036210  0.7913799209899324
  0.3333365042741931  0.5000386462034356  0.7913888282831394
  0.5000386462034356  0.3333361472741956  0.7913888282831394
  0.6665897839036248  0.1666612970048931  0.7913799209899324
  0.8331950996400934  0.9999699484971032  0.7913767697012233
  0.4998861182853389  0.8332888496880173  0.7913882110265860
  0.6666015937981413  0.6666018917981376  0.7914037355797277
  0.8332891476880135  0.4998861182853389  0.7913882110265860
  0.9999884515776500  0.9999884515776500  0.8328750808653638
  0.9999740656823874  0.5000388365315658  0.8328988629126499
  0.1667052480508744  0.3335471954237619  0.8328670956688953
  0.3335475524237594  0.1667052480508744  0.8328670956688953
  0.5000388365315658  0.9999740656823874  0.8328988629126499
  0.1668070117943543  0.8333177636036240  0.8328587673715688
  0.3333367759471884  0.6666616558334013  0.8329421234544441
  0.4998699387880308  0.4998699387880308  0.8329088583052240
  0.6666613578334051  0.3333364189471908  0.8329421234544441
  0.8333180616036202  0.1668073387943565  0.8328587673715688
  0.6664688047256817  0.8332209960737273  0.8328771088335003
  0.8332212940737236  0.6664691027256779  0.8328771088335003
  0.9999698681245448  0.3334711301226179  0.8743097591899129
  0.1667135006260381  0.1667138276260403  0.8742332928266308
  0.3334714871226154  0.9999698681245448  0.8743097591899129
  0.9999588443061427  0.8332074821488504  0.8742315264168781
  0.1665782342659341  0.6665822818326106  0.8744133238591516
  0.3334002421906632  0.4999865030672908  0.8744161891283539
  0.4999865030672908  0.3333998851906657  0.8744161891283539
  0.6665819838326144  0.1665785612659363  0.8744133238591516
  0.8332077801488467  0.9999588443061427  0.8742315264168781
  0.5000172016714970  0.8333928205211620  0.8744205042734947
  0.6665153476495220  0.6665156456495183  0.8743414654555366
  0.8333931185211583  0.5000172016714970  0.8744205042734947
  0.0000871210213447  0.0000871210213447  0.9154427522244717
  0.0000904650023230  0.5003092453893601  0.9157996516199702
  0.1667681398506389  0.3336856465398412  0.9156689863796714
  0.3336860035398388  0.1667681398506389  0.9156689863796714
  0.5003092453893601  0.0000904650023230  0.9157996516199702
  0.1669355912006552  0.8334892562006146  0.9156740862933006
  0.3334002009245296  0.6668254797856719  0.9157721450224230
  0.4999639539441105  0.4999639539441105  0.9158346496845553
  0.6668251817856756  0.3333998439245320  0.9157721450224230
  0.8334895542006109  0.1669359182006573  0.9156740862933006
  0.6665176458444009  0.8331079375204027  0.9157234019227118
  0.8331082355203989  0.6665179438443971  0.9157234019227118
  0.0001013903362548  0.3336270057087560  0.9574532492641197
  0.1662648383941772  0.1662651653941793  0.9570039018311363
  0.3336273627087536  0.0001013903362548  0.9574532492641197
  0.9999311428126347  0.8339447416027568  0.9570605018038023
  0.1670706276801113  0.6677648783079420  0.9572611172209022
  0.3325395483746192  0.4997653848881427  0.9572629250889193
  0.4997653848881427  0.3325391913746216  0.9572629250889193
  0.6677645803079457  0.1670709546801135  0.9572611172209022
  0.8339450396027530  0.9999311428126347  0.9570605018038023
  0.5004862854876961  0.8328299725663726  0.9572912528707889
  0.6665765759806348  0.6665768739806310  0.9575711399783415
  0.8328302705663688  0.5004862854876961  0.9572912528707889
  0.9998375743512682  0.2312185059973757  0.0740141006838613
  0.2312181789973735  0.9998375743512682  0.0740141006838613
  0.7715048121962411  0.7715048121962411  0.0746238790820684
  0.2310856524287033  0.2310859794287055  0.1342547298733834
  0.0021900475863887  0.7705669989366228  0.1338655758562908
  0.7705672969366191  0.0021900475863887  0.1338655758562908
  0.0001922391213611  0.0001922391213611  0.0483482855516542
  0.0012673797758751  0.7137679091953686  0.0861606381516751
  0.2864058392170463  0.2864054822170488  0.0861321247335951
  0.7137676111953724  0.0012673797758751  0.0861606381516751
  0.0008659461169884  0.2866691012118139  0.1217106561272772
  0.2866694582118114  0.0008659461169884  0.1217106561272772
  0.7136705716375076  0.7136708696375038  0.1225930978427172
  0.9980438160137268  0.9980438160137268  0.1602920135103290
  0.6633482799482238  0.6633485779482200  0.2093653995142617
 
  0.00000000E+00  0.00000000E+00  0.00000000E+00
  0.00000000E+00  0.00000000E+00  0.00000000E+00
  0.00000000E+00  0.00000000E+00  0.00000000E+00
  0.00000000E+00  0.00000000E+00  0.00000000E+00
  0.00000000E+00  0.00000000E+00  0.00000000E+00
  0.00000000E+00  0.00000000E+00  0.00000000E+00
  0.00000000E+00  0.00000000E+00  0.00000000E+00
  0.00000000E+00  0.00000000E+00  0.00000000E+00
  0.00000000E+00  0.00000000E+00  0.00000000E+00
  0.00000000E+00  0.00000000E+00  0.00000000E+00
  0.00000000E+00  0.00000000E+00  0.00000000E+00
  0.00000000E+00  0.00000000E+00  0.00000000E+00
  0.00000000E+00  0.00000000E+00  0.00000000E+00
  0.00000000E+00  0.00000000E+00  0.00000000E+00
  0.00000000E+00  0.00000000E+00  0.00000000E+00
  0.00000000E+00  0.00000000E+00  0.00000000E+00
  0.00000000E+00  0.00000000E+00  0.00000000E+00
  0.00000000E+00  0.00000000E+00  0.00000000E+00
  0.00000000E+00  0.00000000E+00  0.00000000E+00
  0.00000000E+00  0.00000000E+00  0.00000000E+00
  0.00000000E+00  0.00000000E+00  0.00000000E+00
  0.00000000E+00  0.00000000E+00  0.00000000E+00
  0.00000000E+00  0.00000000E+00  0.00000000E+00
  0.00000000E+00  0.00000000E+00  0.00000000E+00
  0.00000000E+00  0.00000000E+00  0.00000000E+00
  0.00000000E+00  0.00000000E+00  0.00000000E+00
  0.00000000E+00  0.00000000E+00  0.00000000E+00
  0.00000000E+00  0.00000000E+00  0.00000000E+00
  0.00000000E+00  0.00000000E+00  0.00000000E+00
  0.00000000E+00  0.00000000E+00  0.00000000E+00
  0.00000000E+00  0.00000000E+00  0.00000000E+00
  0.00000000E+00  0.00000000E+00  0.00000000E+00
  0.00000000E+00  0.00000000E+00  0.00000000E+00
  0.00000000E+00  0.00000000E+00  0.00000000E+00
  0.00000000E+00  0.00000000E+00  0.00000000E+00
  0.00000000E+00  0.00000000E+00  0.00000000E+00
  0.00000000E+00  0.00000000E+00  0.00000000E+00
  0.00000000E+00  0.00000000E+00  0.00000000E+00
  0.00000000E+00  0.00000000E+00  0.00000000E+00
  0.00000000E+00  0.00000000E+00  0.00000000E+00
  0.00000000E+00  0.00000000E+00  0.00000000E+00
  0.00000000E+00  0.00000000E+00  0.00000000E+00
  0.00000000E+00  0.00000000E+00  0.00000000E+00
  0.00000000E+00  0.00000000E+00  0.00000000E+00
  0.00000000E+00  0.00000000E+00  0.00000000E+00
  0.00000000E+00  0.00000000E+00  0.00000000E+00
  0.00000000E+00  0.00000000E+00  0.00000000E+00
  0.00000000E+00  0.00000000E+00  0.00000000E+00
  0.00000000E+00  0.00000000E+00  0.00000000E+00
  0.00000000E+00  0.00000000E+00  0.00000000E+00
  0.00000000E+00  0.00000000E+00  0.00000000E+00
  0.00000000E+00  0.00000000E+00  0.00000000E+00
  0.00000000E+00  0.00000000E+00  0.00000000E+00
  0.00000000E+00  0.00000000E+00  0.00000000E+00
  0.00000000E+00  0.00000000E+00  0.00000000E+00
  0.00000000E+00  0.00000000E+00  0.00000000E+00
  0.00000000E+00  0.00000000E+00  0.00000000E+00
  0.00000000E+00  0.00000000E+00  0.00000000E+00
  0.00000000E+00  0.00000000E+00  0.00000000E+00
  0.00000000E+00  0.00000000E+00  0.00000000E+00
  0.00000000E+00  0.00000000E+00  0.00000000E+00
  0.00000000E+00  0.00000000E+00  0.00000000E+00
  0.00000000E+00  0.00000000E+00  0.00000000E+00
  0.00000000E+00  0.00000000E+00  0.00000000E+00
  0.00000000E+00  0.00000000E+00  0.00000000E+00
  0.00000000E+00  0.00000000E+00  0.00000000E+00
  0.00000000E+00  0.00000000E+00  0.00000000E+00
  0.00000000E+00  0.00000000E+00  0.00000000E+00
  0.00000000E+00  0.00000000E+00  0.00000000E+00
  0.00000000E+00  0.00000000E+00  0.00000000E+00
  0.00000000E+00  0.00000000E+00  0.00000000E+00
  0.00000000E+00  0.00000000E+00  0.00000000E+00
  0.00000000E+00  0.00000000E+00  0.00000000E+00
  0.00000000E+00  0.00000000E+00  0.00000000E+00
  0.00000000E+00  0.00000000E+00  0.00000000E+00
  0.00000000E+00  0.00000000E+00  0.00000000E+00
  0.00000000E+00  0.00000000E+00  0.00000000E+00
  0.00000000E+00  0.00000000E+00  0.00000000E+00
  0.00000000E+00  0.00000000E+00  0.00000000E+00
  0.00000000E+00  0.00000000E+00  0.00000000E+00
  0.00000000E+00  0.00000000E+00  0.00000000E+00
  0.00000000E+00  0.00000000E+00  0.00000000E+00
  0.00000000E+00  0.00000000E+00  0.00000000E+00
  0.00000000E+00  0.00000000E+00  0.00000000E+00
  0.00000000E+00  0.00000000E+00  0.00000000E+00
  0.00000000E+00  0.00000000E+00  0.00000000E+00
  0.00000000E+00  0.00000000E+00  0.00000000E+00
  0.00000000E+00  0.00000000E+00  0.00000000E+00
  0.00000000E+00  0.00000000E+00  0.00000000E+00
  0.00000000E+00  0.00000000E+00  0.00000000E+00
  0.00000000E+00  0.00000000E+00  0.00000000E+00
  0.00000000E+00  0.00000000E+00  0.00000000E+00
  0.00000000E+00  0.00000000E+00  0.00000000E+00
  0.00000000E+00  0.00000000E+00  0.00000000E+00
  0.00000000E+00  0.00000000E+00  0.00000000E+00
  0.00000000E+00  0.00000000E+00  0.00000000E+00
  0.00000000E+00  0.00000000E+00  0.00000000E+00
  0.00000000E+00  0.00000000E+00  0.00000000E+00
  0.00000000E+00  0.00000000E+00  0.00000000E+00
  0.00000000E+00  0.00000000E+00  0.00000000E+00
  0.00000000E+00  0.00000000E+00  0.00000000E+00
  0.00000000E+00  0.00000000E+00  0.00000000E+00
  0.00000000E+00  0.00000000E+00  0.00000000E+00
  0.00000000E+00  0.00000000E+00  0.00000000E+00
  0.00000000E+00  0.00000000E+00  0.00000000E+00
  0.00000000E+00  0.00000000E+00  0.00000000E+00
  0.00000000E+00  0.00000000E+00  0.00000000E+00
  0.00000000E+00  0.00000000E+00  0.00000000E+00
  0.00000000E+00  0.00000000E+00  0.00000000E+00
  0.00000000E+00  0.00000000E+00  0.00000000E+00
  0.00000000E+00  0.00000000E+00  0.00000000E+00
  0.00000000E+00  0.00000000E+00  0.00000000E+00
  0.00000000E+00  0.00000000E+00  0.00000000E+00
  0.00000000E+00  0.00000000E+00  0.00000000E+00
  0.00000000E+00  0.00000000E+00  0.00000000E+00
  0.00000000E+00  0.00000000E+00  0.00000000E+00
  0.00000000E+00  0.00000000E+00  0.00000000E+00
  0.00000000E+00  0.00000000E+00  0.00000000E+00
  0.00000000E+00  0.00000000E+00  0.00000000E+00
  0.00000000E+00  0.00000000E+00  0.00000000E+00
  0.00000000E+00  0.00000000E+00  0.00000000E+00
  0.00000000E+00  0.00000000E+00  0.00000000E+00
  0.00000000E+00  0.00000000E+00  0.00000000E+00
  0.00000000E+00  0.00000000E+00  0.00000000E+00
  0.00000000E+00  0.00000000E+00  0.00000000E+00
  0.00000000E+00  0.00000000E+00  0.00000000E+00
  0.00000000E+00  0.00000000E+00  0.00000000E+00
  0.00000000E+00  0.00000000E+00  0.00000000E+00
  0.00000000E+00  0.00000000E+00  0.00000000E+00
  0.00000000E+00  0.00000000E+00  0.00000000E+00
  0.00000000E+00  0.00000000E+00  0.00000000E+00
  0.00000000E+00  0.00000000E+00  0.00000000E+00
  0.00000000E+00  0.00000000E+00  0.00000000E+00
  0.00000000E+00  0.00000000E+00  0.00000000E+00
  0.00000000E+00  0.00000000E+00  0.00000000E+00
  0.00000000E+00  0.00000000E+00  0.00000000E+00
  0.00000000E+00  0.00000000E+00  0.00000000E+00
  0.00000000E+00  0.00000000E+00  0.00000000E+00
  0.00000000E+00  0.00000000E+00  0.00000000E+00
  0.00000000E+00  0.00000000E+00  0.00000000E+00
  0.00000000E+00  0.00000000E+00  0.00000000E+00
  0.00000000E+00  0.00000000E+00  0.00000000E+00
  0.00000000E+00  0.00000000E+00  0.00000000E+00
  0.00000000E+00  0.00000000E+00  0.00000000E+00
  0.00000000E+00  0.00000000E+00  0.00000000E+00
  0.00000000E+00  0.00000000E+00  0.00000000E+00
  0.00000000E+00  0.00000000E+00  0.00000000E+00
  0.00000000E+00  0.00000000E+00  0.00000000E+00
  0.00000000E+00  0.00000000E+00  0.00000000E+00
  0.00000000E+00  0.00000000E+00  0.00000000E+00
  0.00000000E+00  0.00000000E+00  0.00000000E+00
  0.00000000E+00  0.00000000E+00  0.00000000E+00
  0.00000000E+00  0.00000000E+00  0.00000000E+00
  0.00000000E+00  0.00000000E+00  0.00000000E+00
  0.00000000E+00  0.00000000E+00  0.00000000E+00
  0.00000000E+00  0.00000000E+00  0.00000000E+00
  0.00000000E+00  0.00000000E+00  0.00000000E+00
  0.00000000E+00  0.00000000E+00  0.00000000E+00
  0.00000000E+00  0.00000000E+00  0.00000000E+00
  0.00000000E+00  0.00000000E+00  0.00000000E+00
  0.00000000E+00  0.00000000E+00  0.00000000E+00
  0.00000000E+00  0.00000000E+00  0.00000000E+00
  0.00000000E+00  0.00000000E+00  0.00000000E+00
  0.00000000E+00  0.00000000E+00  0.00000000E+00
  0.00000000E+00  0.00000000E+00  0.00000000E+00
  0.00000000E+00  0.00000000E+00  0.00000000E+00
  0.00000000E+00  0.00000000E+00  0.00000000E+00
  0.00000000E+00  0.00000000E+00  0.00000000E+00
  0.00000000E+00  0.00000000E+00  0.00000000E+00
  0.00000000E+00  0.00000000E+00  0.00000000E+00
  0.00000000E+00  0.00000000E+00  0.00000000E+00
  0.00000000E+00  0.00000000E+00  0.00000000E+00
  0.00000000E+00  0.00000000E+00  0.00000000E+00
  0.00000000E+00  0.00000000E+00  0.00000000E+00
  0.00000000E+00  0.00000000E+00  0.00000000E+00
  0.00000000E+00  0.00000000E+00  0.00000000E+00
  0.00000000E+00  0.00000000E+00  0.00000000E+00
  0.00000000E+00  0.00000000E+00  0.00000000E+00
  0.00000000E+00  0.00000000E+00  0.00000000E+00
  0.00000000E+00  0.00000000E+00  0.00000000E+00
  0.00000000E+00  0.00000000E+00  0.00000000E+00
  0.00000000E+00  0.00000000E+00  0.00000000E+00
  0.00000000E+00  0.00000000E+00  0.00000000E+00
  0.00000000E+00  0.00000000E+00  0.00000000E+00
  0.00000000E+00  0.00000000E+00  0.00000000E+00
  0.00000000E+00  0.00000000E+00  0.00000000E+00
  0.00000000E+00  0.00000000E+00  0.00000000E+00
  0.00000000E+00  0.00000000E+00  0.00000000E+00
  0.00000000E+00  0.00000000E+00  0.00000000E+00
  0.00000000E+00  0.00000000E+00  0.00000000E+00
  0.00000000E+00  0.00000000E+00  0.00000000E+00
  0.00000000E+00  0.00000000E+00  0.00000000E+00
  0.00000000E+00  0.00000000E+00  0.00000000E+00
  0.00000000E+00  0.00000000E+00  0.00000000E+00
  0.00000000E+00  0.00000000E+00  0.00000000E+00
  0.00000000E+00  0.00000000E+00  0.00000000E+00
  0.00000000E+00  0.00000000E+00  0.00000000E+00
  0.00000000E+00  0.00000000E+00  0.00000000E+00
  0.00000000E+00  0.00000000E+00  0.00000000E+00
  0.00000000E+00  0.00000000E+00  0.00000000E+00
  0.00000000E+00  0.00000000E+00  0.00000000E+00
  0.00000000E+00  0.00000000E+00  0.00000000E+00
  0.00000000E+00  0.00000000E+00  0.00000000E+00
  0.00000000E+00  0.00000000E+00  0.00000000E+00
  0.00000000E+00  0.00000000E+00  0.00000000E+00
  0.00000000E+00  0.00000000E+00  0.00000000E+00
  0.00000000E+00  0.00000000E+00  0.00000000E+00
  0.00000000E+00  0.00000000E+00  0.00000000E+00
  0.00000000E+00  0.00000000E+00  0.00000000E+00
  0.00000000E+00  0.00000000E+00  0.00000000E+00
  0.00000000E+00  0.00000000E+00  0.00000000E+00
  0.00000000E+00  0.00000000E+00  0.00000000E+00
  0.00000000E+00  0.00000000E+00  0.00000000E+00
  0.00000000E+00  0.00000000E+00  0.00000000E+00
  0.00000000E+00  0.00000000E+00  0.00000000E+00
  0.00000000E+00  0.00000000E+00  0.00000000E+00
  0.00000000E+00  0.00000000E+00  0.00000000E+00
  0.00000000E+00  0.00000000E+00  0.00000000E+00
  0.00000000E+00  0.00000000E+00  0.00000000E+00
  0.00000000E+00  0.00000000E+00  0.00000000E+00
  0.00000000E+00  0.00000000E+00  0.00000000E+00
  0.00000000E+00  0.00000000E+00  0.00000000E+00
  0.00000000E+00  0.00000000E+00  0.00000000E+00
  0.00000000E+00  0.00000000E+00  0.00000000E+00
  0.00000000E+00  0.00000000E+00  0.00000000E+00
  0.00000000E+00  0.00000000E+00  0.00000000E+00
  0.00000000E+00  0.00000000E+00  0.00000000E+00
  0.00000000E+00  0.00000000E+00  0.00000000E+00
  0.00000000E+00  0.00000000E+00  0.00000000E+00
  0.00000000E+00  0.00000000E+00  0.00000000E+00
  0.00000000E+00  0.00000000E+00  0.00000000E+00
  0.00000000E+00  0.00000000E+00  0.00000000E+00
  0.00000000E+00  0.00000000E+00  0.00000000E+00
  0.00000000E+00  0.00000000E+00  0.00000000E+00
  0.00000000E+00  0.00000000E+00  0.00000000E+00
  0.00000000E+00  0.00000000E+00  0.00000000E+00
  0.00000000E+00  0.00000000E+00  0.00000000E+00
  0.00000000E+00  0.00000000E+00  0.00000000E+00
  0.00000000E+00  0.00000000E+00  0.00000000E+00
  0.00000000E+00  0.00000000E+00  0.00000000E+00
  0.00000000E+00  0.00000000E+00  0.00000000E+00
  0.00000000E+00  0.00000000E+00  0.00000000E+00
  0.00000000E+00  0.00000000E+00  0.00000000E+00
  0.00000000E+00  0.00000000E+00  0.00000000E+00
  0.00000000E+00  0.00000000E+00  0.00000000E+00
  0.00000000E+00  0.00000000E+00  0.00000000E+00
  0.00000000E+00  0.00000000E+00  0.00000000E+00